42
BNPAH_15110
  C          -2.53091576113970     -0.44950363679248     -0.00076395536710
  C          -2.60631094843240      0.97505076567209     -0.00113153913517
  C          -1.47152643165295      1.71779026611860     -0.00091492066499
  C          -0.18627800526718      1.09495186259695     -0.00032134360696
  C           0.98668473066964      1.84261824451003     -0.00010810830301
  C           2.28733830311741      1.31603633057677      0.00035655801101
  C           2.33505371950283     -0.14051505277422      0.00072770465998
  C           3.54371249186747     -0.86679324223538      0.00129629150084
  B           4.81630510336567     -0.17828130299887      0.00123785888216
  C           4.76145148943902      1.36287426332161      0.00051048910118
  C           3.54868744940195      2.09294466027355      0.00036726864424
  C           3.64820177266385      3.57611274931972      0.00033703583771
  C           2.54965111212111      4.47314168825825      0.00061510418358
  C           2.65994538725312      5.83882796102049      0.00091573132674
  C           3.90680074847076      6.45704451735513      0.00093387405339
  C           5.00486856627133      5.64972514717160      0.00053654791539
  C           4.91174466487378      4.24153642622805      0.00021393128249
  C           6.12731016172432      3.48227102455272     -0.00026087504777
  C           7.41135091680172      4.07397028768130     -0.00095112575410
  C           8.53589533331357      3.31769481382385     -0.00131174642045
  N           8.40579663155825      1.97096740537654     -0.00107594513054
  C           7.22271264286107      1.36554601588692     -0.00052658229807
  C           6.02310223259161      2.07567311863729     -0.00005086066140
  C           1.14315782393123     -0.88450990547662      0.00055724269647
  C          -0.11460101738303     -0.32138240987120      0.00002268816975
  C          -1.32934269050115     -1.07633834514942     -0.00021714326108
  H          -3.44716905034674     -1.02848128928759     -0.00093594779107
  H          -3.57627855943427      1.45761159139928     -0.00159883962436
  H          -1.52559470235706      2.80197655209117     -0.00121114477154
  H           1.54861532209136      4.11572975843521      0.00061439194470
  H           3.43770742330890     -1.94832760052508      0.00166944219564
  H           5.84847775705944     -0.80412083361795      0.00178606631591
  H           0.78496126560162      2.88948544038108     -0.00032531979144
  H           1.75390973392184      6.43307150830494      0.00117201259500
  H           4.00492665501905      7.53482210672370      0.00123917669647
  H           5.97665126620654      6.12021662381128      0.00057140523279
  H           7.53835065514399      5.14429726000428     -0.00125319596394
  H           9.53888746215497      3.71683177371160     -0.00180795877378
  H           9.23428006465436      1.39706949603720     -0.00136242888579
  H           7.22615303751394      0.28689771734284     -0.00045793200221
  H           1.23735501417876     -1.96542874483120      0.00085836167969
  H          -1.26819877214003     -2.15913401306405      0.00004773032967
