32
BNPAH_04042
  C           5.49415630900549     -1.97084957807816     -0.00000313416701
  N           4.29618736228872     -2.56427018170260      0.00000038205618
  C           3.09376421623281     -1.89903480609197      0.00000605122658
  C           3.14693204007383     -0.46014222118498      0.00000905854734
  C           4.39687780968858      0.13445679166093      0.00000207852553
  C           5.57984778938097     -0.60608214911946      0.00000178151884
  C           1.89492044339545      0.25977901390693     -0.00000113972230
  C           1.82033913289415      1.68548899773841     -0.00000735671443
  C           0.62807370019755      2.37573884964102     -0.00000367734166
  C          -0.62788178297852      1.72066661780878     -0.00001230376675
  C          -1.89459290886325      2.33586200438629      0.00000885338138
  C          -3.05847347242947      1.57929767857281     -0.00000038865148
  C          -3.06753419565052      0.16881136146719     -0.00001356671074
  C          -1.88611516436858     -0.55783394138797     -0.00001862028512
  C          -1.76990639532091     -1.98749091055996     -0.00000357927596
  C          -0.56118153167753     -2.62095553861846      0.00000506454121
  C           0.70002344980978     -1.92079302527810      0.00000122225107
  C           1.91124292831240     -2.61389936993070      0.00000995201961
  C           0.70916797092885     -0.49277960679547     -0.00000867564143
  B          -0.60631130981759      0.22588191379397     -0.00002406116449
  H           6.35599378450422     -2.62371004724347     -0.00000799161476
  H           4.25482125003961     -3.57148376296567     -0.00000024180867
  H           4.46294444529636      1.21446404529581      0.00000799314699
  H           6.54676415425203     -0.12547500559448     -0.00000278112895
  H           2.73564288864087      2.26495700442974     -0.00001163378669
  H           0.67885362087835      3.46412419215914      0.00000145142881
  H          -1.98712605646027      3.42130005189556      0.00003538845682
  H          -4.01172461158827      2.09643771199207      0.00001491885273
  H          -4.03497632207369     -0.33271996412699     -0.00001435055681
  H          -2.66770281854680     -2.60477838550026      0.00000290092029
  H          -0.52800490878583     -3.70545539641760      0.00001619140646
  H           1.93346018274118     -3.69934234415232      0.00001021405740
