   13
bigqm7wdef2tzvp_005819.xyz
  C    -2.43606400    -0.61219900     0.14092800
  N    -0.99673300    -0.63139600     0.12703100
  C    -0.25968500     0.48254800    -0.10853400
  N    -0.64784900     1.68178200    -0.28175800
  C     1.23988900     0.25582100    -0.12905800
  F     1.68721200    -0.03625600     1.11853800
  F     1.54999700    -0.81486700    -0.91350900
  H    -2.80265400    -1.61653000     0.34060500
  H    -2.84868500    -0.27683700    -0.81650900
  H    -2.81003800     0.04720800     0.92869600
  H    -0.52494300    -1.51656400     0.10254800
  H    -1.65898300     1.77453100    -0.23601600
  H     1.75765400     1.13858500    -0.50151600
