   16
bigqm7wdef2tzvp_011192.xyz
  C     2.52223300     0.29509500    -0.16427500
  N     1.34699800    -0.52121900    -0.40249700
  C     0.25706300    -0.26119100     0.53519900
  C    -0.96867200    -1.13326600     0.21814600
  O    -1.94483500    -0.28673900    -0.40684400
  C    -1.53116600     0.98423700    -0.20288400
  C    -0.33726900     1.11423800     0.35699300
  H     3.33136300    -0.03445600    -0.81617700
  H     2.88063400     0.26234000     0.87733800
  H     2.30543300     1.33566300    -0.41091400
  H     1.60243200    -1.49833800    -0.33640200
  H     0.58447600    -0.42202700     1.57468500
  H    -1.41678000    -1.54031200     1.12740500
  H    -0.73312400    -1.94500200    -0.46998700
  H    -2.22689800     1.74450100    -0.52719000
  H     0.14902600     2.04539400     0.59439300
