   14
bigqm7wdef2tzvp_005740.xyz
  C     1.60533600    -1.43221500     0.00000400
  C     1.11040600    -0.01212500    -0.00000300
  O     1.85187700     0.95869200     0.00002400
  N    -0.23414400     0.19995700    -0.00004100
  O    -0.61516200     1.52198100    -0.00000900
  C    -1.26486900    -0.72349600    -0.00001000
  C    -2.55518800    -0.41787200     0.00002500
  H     2.69102500    -1.39907800     0.00002300
  H     1.26349200    -1.97081100    -0.88459600
  H     1.26345700    -1.97082100     0.88458400
  H     0.25594900     1.96515200     0.00001300
  H    -0.91807900    -1.74640500    -0.00003100
  H    -2.90022800     0.60506100     0.00004000
  H    -3.28444500    -1.21393500     0.00003500
