   13
bigqm7wdef2tzvp_009712.xyz
  F     1.32106300    -1.64143100     0.38729400
  C     0.93786000    -0.74314400    -0.59437300
  C     0.10554000     0.35032800     0.02396900
  C    -1.20673100    -0.06454300     0.62181000
  F    -1.97587300    -0.71869800    -0.32380600
  C     0.76337100     1.55583200     0.52266000
  O     0.09551100     1.55340400    -0.72688800
  H     0.36466900    -1.28815800    -1.34625600
  H     1.83332200    -0.31740000    -1.04990200
  H    -1.75954700     0.81307900     0.96175000
  H    -1.04350100    -0.75200300     1.45497000
  H     1.84615300     1.62232400     0.47766700
  H     0.28787000     2.14526000     1.30108000
