   14
bigqm7wdef2tzvp_005480.xyz
  C    -1.63275400    -1.05377300    -0.54550800
  C    -1.00792200     0.27685400    -0.17927700
  O    -1.08203100     0.55632900     1.20505400
  C     0.45579100     0.42138500    -0.63765700
  O     0.96644600     1.67627400    -0.29901300
  C     1.26956300    -0.66666800    -0.04553100
  N     1.85172900    -1.51722000     0.45807200
  H    -2.67692200    -1.06726100    -0.23501200
  H    -1.11257400    -1.88151000    -0.05713200
  H    -1.59112800    -1.21860900    -1.62350700
  H    -1.54758400     1.09295700    -0.66377300
  H    -0.80214700    -0.22205400     1.69562500
  H     0.51057100     0.32689500    -1.72411200
  H     0.67429100     1.86251200     0.60092100
