   15
bigqm7wdef2tzvp_002177.xyz
  C    -2.27140600    -0.44034700    -0.05933400
  N    -0.94761900    -0.05691100    -0.50330900
  C    -0.41874900     1.17712000     0.04669900
  C     0.11289100    -0.13512900     0.48569700
  C     1.42622600    -0.66894800     0.04634400
  C     2.51403100     0.06253600    -0.13064100
  H    -3.01782000     0.04944200    -0.68658200
  H    -2.46960500    -0.17088600     0.98975500
  H    -2.38938800    -1.51980400    -0.16579600
  H    -1.04069800     1.72426100     0.75002000
  H     0.15200500     1.79147100    -0.63917700
  H    -0.19804700    -0.45846600     1.47921300
  H     1.46296800    -1.74153100    -0.12330700
  H     2.50666500     1.13436300     0.03308500
  H     3.44930200    -0.38186200    -0.44663600
