   12
bigqm7wdef2tzvp_003489.xyz
  C    -2.24598700     1.26739900    -0.00001700
  C    -1.72903900    -0.14499000     0.00000100
  O    -2.43890700    -1.11820200     0.00002700
  C    -0.27739500    -0.27695800    -0.00000500
  C     0.91997500    -0.36172500    -0.00001500
  C     2.36580200    -0.51305400    -0.00003100
  F     3.00262300     0.71081400     0.00004000
  H    -3.33351900     1.25837200    -0.00008200
  H    -1.87207400     1.79707200    -0.87863300
  H    -1.87219300     1.79702700     0.87867900
  H     2.68264300    -1.06404800    -0.88907200
  H     2.68265500    -1.06415700     0.88893900
