   13
bigqm7wdef2tzvp_010913.xyz
  O     2.51172500    -0.21653900    -0.47899100
  C     1.83899700    -0.43111000     0.49448700
  C     0.42385000    -0.01137200     0.63454800
  C    -0.00000000     1.27502900    -0.00002500
  C    -0.42385000    -0.01139700    -0.63454800
  C    -1.83899700    -0.43113100    -0.49446900
  O    -2.51172500    -0.21651800     0.47899800
  H     2.26236000    -0.96760100     1.36526400
  H    -0.09037300    -0.30752400     1.53934100
  H     0.76690000     1.83734500    -0.51446600
  H    -0.76690100     1.83736500     0.51439400
  H     0.09037400    -0.30758500    -1.53932900
  H    -2.26235700    -0.96766400    -1.36522200
