   19
bigqm7wdef2tzvp_005425.xyz
  C     2.76886300    -0.05592600    -0.16713600
  C     1.41489100     0.62255300    -0.32332100
  C     0.25496600    -0.34579100    -0.24021700
  F     0.26893900    -0.96075200     1.02125900
  C    -1.11904000     0.28372500    -0.44369100
  C    -2.21500200    -0.78119700    -0.47067800
  N    -1.32690800     1.32973600     0.55038100
  H     3.57776900     0.67170800    -0.24326500
  H     2.92519300    -0.81161700    -0.94093300
  H     2.84893900    -0.54806000     0.80238600
  H     1.35450000     1.12249900    -1.29446900
  H     1.27390300     1.39529300     0.43336900
  H     0.38638900    -1.15467500    -0.96762800
  H    -1.08265800     0.76981800    -1.42441400
  H    -2.25719200    -1.31020100     0.48296900
  H    -2.04027200    -1.51530100    -1.26093200
  H    -3.18784400    -0.31927700    -0.64916900
  H    -1.33601000     0.92177500     1.47738400
  H    -2.22288000     1.77646300     0.41095900
