   12
bigqm7wdef2tzvp_011700.xyz
  O    -2.36555000     0.47562900    -0.36450800
  C    -1.60738900    -0.52457700     0.28350000
  C    -0.16136300    -0.19831600     0.11482100
  C     0.46247400     1.07593000     0.17552700
  C     1.76652200     0.78263200    -0.00137000
  O     1.93403500    -0.53121500    -0.15235000
  N     0.70811900    -1.14692000    -0.08527900
  H    -3.29363600     0.31692400    -0.19106900
  H    -1.79320600    -1.51923200    -0.13305400
  H    -1.83754100    -0.55579100     1.35599200
  H    -0.00278100     2.03534000     0.31044900
  H     2.66098800     1.38187300    -0.04537400
