   17
bigqm7wdef2tzvp_009892.xyz
  C    -2.87205400    -0.87881200    -0.06308800
  C    -2.08926500     0.09519300    -0.50066800
  C    -1.24526000     0.98285900     0.36065200
  C     0.25045800     0.86559600     0.05244100
  C     0.81123300    -0.50731300     0.37965400
  C     2.27010200    -0.67963600     0.07124200
  O     2.97604900     0.15981700    -0.41585300
  H    -3.45598200    -1.48690500    -0.74258600
  H    -2.96304500    -1.09757900     0.99577200
  H    -2.02589700     0.27936500    -1.57127100
  H    -1.42814800     0.75497200     1.41501000
  H    -1.54900700     2.02221300     0.20392700
  H     0.79961100     1.62291500     0.61480700
  H     0.42987100     1.08624100    -1.00273700
  H     0.27317600    -1.29825500    -0.15697500
  H     0.67547600    -0.75107200     1.44106900
  H     2.68427300    -1.67775600     0.32842100
