   15
bigqm7wdef2tzvp_001874.xyz
  C    -3.28921200     0.28836600     0.02511600
  C    -1.87734200    -0.07114100     0.00039200
  C    -0.71773400    -0.37534000    -0.02208600
  C     0.70136700    -0.71441700    -0.05010200
  C     1.60287300     0.51972800    -0.00053600
  N     3.00067300     0.11439700    -0.04779700
  H    -3.80304400    -0.20756200     0.85035200
  H    -3.78171300    -0.00358600    -0.90393900
  H    -3.41385800     1.36543800     0.14884700
  H     0.93578100    -1.28320600    -0.95289700
  H     0.93403700    -1.36592900     0.79852900
  H     1.33927100     1.11452200     0.88422500
  H     1.39588400     1.14008400    -0.87457800
  H     3.26374000    -0.36246900     0.80499700
  H     3.60547800     0.91874600    -0.13764900
