   13
bigqm7wdef2tzvp_001812.xyz
  C    -2.31763000     1.36171500     0.00000000
  O    -1.24744800     0.45641600     0.00000000
  C     0.00000000     1.09216100     0.00000000
  C     1.10491100     0.08951300     0.00000000
  C     0.90713200    -1.21196200     0.00000000
  F     1.93318800    -2.07619400     0.00000000
  H    -3.23788900     0.78014100     0.00000000
  H    -2.30050300     2.00282100    -0.89090900
  H    -2.30050300     2.00282100     0.89090900
  H     0.09565300     1.74420500     0.88270600
  H     0.09565300     1.74420500    -0.88270600
  H     2.11813500     0.47411200     0.00000000
  H    -0.05613700    -1.70243600     0.00000000
