   13
bigqm7wdef2tzvp_005994.xyz
  N    -2.08890400     0.71854900     0.25764500
  C    -1.14181800    -0.22744300    -0.02789300
  N    -1.31678300    -1.44826400    -0.33334300
  C     0.27079700     0.29411300    -0.03301200
  N     0.66126900     1.47671200    -0.32165200
  N     1.18101700    -0.63767300     0.33290200
  O     2.50220400    -0.30700900     0.08660300
  H    -3.03700800     0.41126300     0.38554700
  H    -1.81118100     1.51175300     0.80923400
  H    -2.29332800    -1.72803500    -0.29735000
  H    -0.09911900     2.08318300    -0.59789800
  H     0.96382500    -1.59170700     0.07991700
  H     2.42910700     0.60431900    -0.25570700
