   10
bigqm7wdef2tzvp_006984.xyz
  O    -2.34541100    -0.45458200    -0.09462600
  N    -1.03249300    -0.09024500    -0.00691000
  C    -0.57331400     1.17410900    -0.00379800
  N     0.74162200     1.18555000     0.00895600
  C     1.10028300    -0.10825800     0.00220300
  F     2.37581900    -0.45211600     0.01016500
  C     0.03311200    -0.95787900    -0.01512600
  H    -2.63685600    -0.61205200     0.81018100
  H    -1.22984800     2.02839400    -0.01557300
  H    -0.07677200    -2.02560700    -0.04307900
