   13
bigqm7wdef2tzvp_001123.xyz
  C     2.36728000     0.04028900     0.41135300
  C     1.24844000    -0.56410900    -0.43020300
  C    -0.07280300     0.11378600    -0.16877900
  O    -0.23949000     1.32244000    -0.18840500
  N    -1.10868300    -0.70119200     0.14075400
  O    -2.35798500    -0.11239600     0.20531900
  H     3.32468300    -0.41199400     0.15268100
  H     2.18743200    -0.12431700     1.47457400
  H     2.43043100     1.11392500     0.23984900
  H     1.16622600    -1.63842900    -0.24958900
  H     1.46638400    -0.42687600    -1.49251600
  H    -1.15738500    -1.65090100    -0.18584800
  H    -2.13469100     0.82679200     0.06602800
