   21
bigqm7wdef2tzvp_002892.xyz
  C    -2.23403500     1.29855800    -0.00048400
  C    -1.45275200     0.03220900     0.31743900
  C    -2.09051300    -1.17655000    -0.35656300
  N    -0.07261900     0.20420000    -0.12679000
  C     0.88298800    -0.70942700     0.47516200
  C     2.25435600    -0.54803100    -0.15895900
  N     2.70935000     0.83822700    -0.07421400
  H    -3.27648700     1.19848700     0.30457200
  H    -2.20580300     1.49765200    -1.07423700
  H    -1.81436500     2.16318400     0.51956900
  H    -1.48909200    -0.12677600     1.40903000
  H    -2.09144800    -1.04048400    -1.44001000
  H    -3.12062000    -1.30335600    -0.01798800
  H    -1.55428000    -2.09903200    -0.13082600
  H     0.22077900     1.14511700     0.10579900
  H     0.54696200    -1.73611200     0.31430500
  H     0.96640400    -0.55790100     1.56334900
  H     2.21146600    -0.91737500    -1.19143200
  H     2.96232600    -1.17649900     0.38554800
  H     2.31385400     1.38065900    -0.83072300
  H     3.71292800     0.89490300    -0.16949800
