   13
bigqm7wdef2tzvp_011558.xyz
  C     2.38759500    -0.35500800    -0.00004300
  O     1.44238300     0.70300500     0.00005200
  C     0.15332700     0.37656800     0.00001700
  C    -0.94551900     1.16863500    -0.00001600
  C    -2.05466400     0.26293400    -0.00002200
  C    -1.54501900    -0.98375600     0.00000300
  O    -0.17628400    -0.92506700     0.00002900
  H     3.36348100     0.12334200    -0.00002400
  H     2.28129800    -0.97816900    -0.89011000
  H     2.28132900    -0.97830400     0.88993100
  H    -0.95750100     2.24380100    -0.00003200
  H    -3.10075400     0.51995900    -0.00004700
  H    -1.97096500    -1.97037100     0.00000300
