   17
bigqm7wdef2tzvp_007758.xyz
  C    -0.12913200     2.44344700     0.00000000
  C     0.00000000     0.95054200     0.00000000
  C     1.17601800     0.33494200     0.00000000
  C     1.35468700    -1.15234800     0.00000000
  C     0.05759400    -1.89906600     0.00000000
  C    -1.12363300    -1.30115200     0.00000000
  C    -1.29522300     0.18613700     0.00000000
  H     0.84498800     2.93261400     0.00000000
  H    -0.68529200     2.78504300     0.87813800
  H    -0.68529200     2.78504300    -0.87813800
  H     2.08348700     0.93166300     0.00000000
  H     1.95281800    -1.45391100     0.86890200
  H     1.95281800    -1.45391100    -0.86890200
  H     0.11165100    -2.98247900     0.00000000
  H    -2.02883400    -1.89912300     0.00000000
  H    -1.89410700     0.49002600     0.86861100
  H    -1.89410700     0.49002600    -0.86861100
