   17
bigqm7wdef2tzvp_004391.xyz
  C    -1.95683200    -1.38200300     0.33925700
  C    -1.20178200    -0.49809700    -0.65459200
  C    -0.51518400     0.67171900    -0.00034200
  C    -0.93837200     1.92097600    -0.14931800
  C     0.71930500     0.35347100     0.81156500
  C     1.88166100     0.11084400    -0.12422000
  O     2.42102700    -0.94730600    -0.28442900
  H    -2.44745600    -2.20660800    -0.17927800
  H    -2.72040200    -0.80632000     0.86498500
  H    -1.28744400    -1.81511200     1.08411700
  H    -1.89645400    -0.12619000    -1.40986100
  H    -0.45816800    -1.10730100    -1.17828900
  H    -1.80130500     2.15282300    -0.76231600
  H    -0.44496000     2.75259300     0.33979900
  H     0.58230200    -0.53417600     1.42986100
  H     0.97227400     1.20192300     1.45196000
  H     2.20062800     1.00535900    -0.69964700
