   13
bigqm7wdef2tzvp_006964.xyz
  C     2.41547300    -0.48511300     0.01876100
  N     1.03519100    -0.06854500    -0.02443000
  C     0.59375900     1.21716700    -0.00751300
  C    -0.77980400     1.22027400     0.00722600
  C    -1.15749600    -0.13474500     0.00364700
  F    -2.41287900    -0.58585200     0.00735800
  C    -0.03838200    -0.92016300    -0.01351900
  H     3.05148700     0.37306700    -0.19001700
  H     2.60419900    -1.24746000    -0.73757600
  H     2.67669200    -0.88566900     1.00027100
  H     1.28997400     2.03941000    -0.00886600
  H    -1.42893400     2.07872800     0.01120000
  H     0.07485200    -1.99010300    -0.02183700
