   12
bigqm7wdef2tzvp_012573.xyz
  C     1.79753500    -0.39922700     0.00000000
  C     1.38181500     1.11446200     0.00000000
  N     0.00000000     0.61266300     0.00000000
  N    -1.30317200     0.86254100     0.00000000
  N    -1.85674800    -0.31861400     0.00000000
  C    -0.91796900    -1.30900000     0.00000000
  C     0.30271500    -0.68327000     0.00000000
  H     2.33221600    -0.72071300     0.89110800
  H     2.33221600    -0.72071300    -0.89110800
  H     1.63653900     1.67666400    -0.89602800
  H     1.63653900     1.67666400     0.89602800
  H    -1.20264300    -2.34581900     0.00000000
