   14
bigqm7wdef2tzvp_010168.xyz
  C    -3.41180000    -0.03916900    -0.02024100
  C    -1.97784200    -0.43369200     0.01171300
  N    -1.05773900     0.43778600     0.00074200
  N     0.22317300    -0.10446800     0.03101600
  C     1.13205500     0.79194700     0.00188100
  N     2.43641300     0.43189700     0.09729400
  O     2.69603200    -0.92918800    -0.02402600
  H    -3.93146900    -0.42316800     0.86125800
  H    -3.90602300    -0.47036400    -0.89456600
  H    -3.50994500     1.04452600    -0.05079700
  H    -1.72419300    -1.49598100     0.04581200
  H     0.93316500     1.85990900    -0.05453200
  H     3.09708400     0.95926900    -0.45249000
  H     1.80571800    -1.31170400    -0.12595100
