   12
bigqm7wdef2tzvp_001880.xyz
  C    -3.08359600    -0.35638600    -0.05921100
  C    -1.69053900     0.06601900    -0.01755600
  C    -0.54794400     0.42626500     0.01195100
  C     0.85595300     0.81379900     0.04777600
  C     1.78001100    -0.37708000     0.24194200
  O     2.86252200    -0.46144400    -0.25964600
  H    -3.16251700    -1.39979900    -0.36781500
  H    -3.64828400     0.25017400    -0.76882500
  H    -3.55035500    -0.25495000     0.92163900
  H     1.03430600     1.48853500     0.89380000
  H     1.15835000     1.34430600    -0.85636200
  H     1.38501700    -1.17241600     0.90531500
