   11
bigqm7wdef2tzvp_008413.xyz
  F     0.00000000     1.42322000    -1.44462300
  C     0.00000000     0.73105700    -0.31613200
  C     0.00000000     1.18880300     0.93369900
  C     0.00000000    -0.00000000     1.84831900
  C    -0.00000000    -1.18880300     0.93369900
  C    -0.00000000    -0.73105700    -0.31613200
  F    -0.00000000    -1.42322000    -1.44462300
  H     0.00000000     2.21901500     1.25028200
  H    -0.87886400     0.00000000     2.50096400
  H     0.87886400    -0.00000000     2.50096400
  H    -0.00000000    -2.21901500     1.25028200
