   16
bigqm7wdef2tzvp_000125.xyz
  C     2.07471300    -0.02574300    -0.12831500
  C     0.75278700    -0.64610100     0.30007000
  C    -0.47237900     0.02168700    -0.32167600
  C    -1.74382800    -0.76861800    -0.01589700
  N    -0.53519400     1.41807400     0.10599700
  H     2.91681200    -0.51755800     0.36149900
  H     2.10026300     1.03551300     0.11768300
  H     2.21447300    -0.11994500    -1.20792100
  H     0.65449400    -0.59827200     1.39149300
  H     0.73922200    -1.70834500     0.04059000
  H    -0.32921100     0.03686700    -1.40794600
  H    -1.90525100    -0.82715500     1.06461700
  H    -1.68490400    -1.78848700    -0.40323500
  H    -2.61784100    -0.28811500    -0.46102500
  H    -0.70637000     1.46566200     1.10410100
  H    -1.30307800     1.89597300    -0.34692100
