   19
bigqm7wdef2tzvp_005846.xyz
  C     2.26884100     0.48982600     0.56858900
  C     1.48161800    -0.07006400    -0.61641600
  C     0.13022200    -0.62301500    -0.20883100
  N    -0.05167400    -1.84460800     0.12663000
  N    -0.94279700     0.23622200    -0.21251900
  C    -2.21178400    -0.28734800     0.24767200
  C    -0.79430900     1.66660900    -0.07672900
  H     3.25585500     0.82761800     0.25003900
  H     2.40078700    -0.27646200     1.33347100
  H     1.75774200     1.33558100     1.03097700
  H     2.04094100    -0.89431600    -1.06097100
  H     1.37836400     0.68494000    -1.39731600
  H     0.80499200    -2.37300500     0.00710900
  H    -2.24450200    -0.38219600     1.33969600
  H    -2.37482300    -1.27564800    -0.17359000
  H    -3.00682300     0.38681700    -0.07321800
  H    -0.73960700     1.98088400     0.97440400
  H    -1.65484500     2.16169900    -0.52955200
  H     0.09568500     2.02674100    -0.58553600
