   15
bigqm7wdef2tzvp_009243.xyz
  O     2.42231300     0.34371400     0.04188600
  C     1.38866300    -0.61679000    -0.05442600
  C     0.09938700     0.01692400     0.44852900
  C    -0.32567200     1.16338000    -0.45194800
  F    -1.40589500     1.83004100     0.11024600
  C    -0.99827100    -1.01603800     0.60833000
  F    -1.25714600    -1.64474600    -0.60485100
  H     3.21519400    -0.00985600    -0.36111400
  H     1.61472200    -1.49875700     0.55772600
  H     1.25791000    -0.95431900    -1.08907000
  H     0.29574900     0.42724100     1.44481900
  H    -0.63744300     0.79481500    -1.43251800
  H     0.48772500     1.87892400    -0.56989400
  H    -1.92531600    -0.54888200     0.94308400
  H    -0.70431900    -1.79138400     1.32041700
