   15
bigqm7wdef2tzvp_007682.xyz
  C    -1.05489300     2.01027700     0.00000000
  C     0.18322900     1.10597200     0.00000000
  C     0.23048200     0.22488700     1.21808200
  C     0.23048200    -1.09774700     1.15423100
  O     0.21878800    -1.82213700    -0.00000000
  C     0.23048200    -1.09774700    -1.15423100
  C     0.23048200     0.22488700    -1.21808200
  H    -1.06666100     2.65166100     0.88403800
  H    -1.96549100     1.40862800     0.00000000
  H    -1.06666100     2.65166100    -0.88403800
  H     1.06214100     1.76321600     0.00000000
  H     0.24560100     0.68478000     2.19814300
  H     0.24679300    -1.74540400     2.01920400
  H     0.24679300    -1.74540400    -2.01920400
  H     0.24560100     0.68478000    -2.19814300
