   17
bigqm7wdef2tzvp_008803.xyz
  C     3.26838700    -0.00239400    -0.25295600
  C     1.92435200     0.00373600     0.39805000
  C     0.76348000    -0.01381900    -0.24130800
  C    -0.55919600     0.01964100     0.43512200
  C    -1.58958200     1.06622200    -0.03293400
  C    -2.50724900    -0.14048700    -0.24321200
  O    -1.43429300    -1.05327700     0.02318700
  H     3.83866500     0.88871900     0.02188300
  H     3.18563500    -0.03511200    -1.33974400
  H     3.85300000    -0.86596300     0.07405600
  H     1.91598000     0.02459900     1.48589700
  H     0.73748400    -0.04867900    -1.32848300
  H    -0.42557400     0.00742200     1.52303300
  H    -1.30184500     1.57208300    -0.95329200
  H    -1.89863500     1.80119200     0.70667000
  H    -2.92012000    -0.27746400    -1.24500600
  H    -3.31139400    -0.23797700     0.49291500
