   19
bigqm7wdef2tzvp_010692.xyz
  C    -1.30122000     1.79888800    -0.09467300
  C    -0.90955300     0.41998700     0.38478600
  C    -1.75437500    -0.80649800    -0.02072100
  C    -0.44434200    -1.60908100    -0.14912200
  C     0.32149100    -0.26864000    -0.26577300
  C     1.64509500    -0.12396600     0.39343100
  C     2.73807000     0.36133900    -0.17707400
  H    -2.22857700     2.13434800     0.37515000
  H    -1.45293500     1.80215300    -1.17709300
  H    -0.52236300     2.52880200     0.13802800
  H    -0.77512600     0.42332100     1.47089800
  H    -2.22585500    -0.65207700    -0.99378900
  H    -2.50747600    -1.16264300     0.68153300
  H    -0.34755400    -2.31383200    -0.97396800
  H    -0.19497400    -2.12132100     0.78224400
  H     0.38854300     0.03231600    -1.31558700
  H     1.68742000    -0.43997200     1.43454300
  H     2.73683500     0.68593400    -1.21225200
  H     3.67106400     0.45079600     0.36517200
