   16
bigqm7wdef2tzvp_009470.xyz
  C     2.01057900    -1.06214200     0.57913900
  C     1.06873800    -0.86408700    -0.60977900
  C    -0.22519300    -0.21351600    -0.21989400
  C    -0.24428100     1.24294400     0.16099700
  F     0.94390200     1.87084700    -0.15103600
  N    -1.28475900    -0.91624700    -0.20971600
  N    -2.46704500    -0.29023300     0.14681900
  H     2.93341400    -1.54719800     0.25855300
  H     1.54322000    -1.69165300     1.33856800
  H     2.27759000    -0.10908400     1.03783800
  H     0.82087200    -1.82623100    -1.05766200
  H     1.56682400    -0.25744600    -1.36928600
  H    -0.41023000     1.37235700     1.23792500
  H    -1.05420600     1.74902700    -0.37493600
  H    -3.16709200    -0.99926100     0.29560400
  H    -2.40194500     0.29803400     0.97022200
