   15
bigqm7wdef2tzvp_012720.xyz
  C     2.09917500    -0.33617200     0.16591700
  N     0.84906800     0.12490000    -0.38173800
  N     0.37118300     1.30452700     0.14088200
  C    -0.90726700     1.28708900     0.11880700
  C    -1.47744000    -0.01915200    -0.28220300
  C    -1.07171900    -1.15883600     0.63202000
  C    -0.22455900    -0.81181300    -0.55656800
  H     2.79507600     0.49979500     0.20188700
  H     2.50876500    -1.11084600    -0.48363300
  H     1.98830600    -0.75081600     1.17777800
  H    -1.46912000     2.17159700     0.38291200
  H    -2.38228500    -0.09034700    -0.86816700
  H    -1.65301300    -2.06654900     0.55412400
  H    -0.72083700    -0.91121800     1.62547400
  H    -0.11777900    -1.51429700    -1.37221900
