   19
bigqm7wdef2tzvp_003017.xyz
  C    -3.33149700     0.16426300     0.03675000
  C    -2.01841600    -0.60126800    -0.03995400
  C    -0.81096000     0.32029300     0.01530300
  N     0.41800100    -0.42914700    -0.07452300
  C     1.65690100     0.15517500    -0.00957300
  C     2.79721400    -0.82428200     0.03442000
  N     1.90126200     1.40686700    -0.00564400
  H    -4.18408700    -0.51421500    -0.00192800
  H    -3.42533400     0.86614900    -0.79444700
  H    -3.40057100     0.73527700     0.96495100
  H    -1.97936100    -1.18284000    -0.96520000
  H    -1.96202500    -1.31609600     0.78738200
  H    -0.84037400     0.91098300     0.94138400
  H    -0.86298300     1.03201200    -0.81631100
  H     0.36488000    -1.41402900     0.11423900
  H     2.73747000    -1.44599000     0.93120800
  H     3.73571900    -0.27789600     0.04438600
  H     2.77234300    -1.48456700    -0.83502400
  H     1.05002900     1.96208600    -0.03114300
