   13
bigqm7wdef2tzvp_000644.xyz
  F     1.38316600    -1.19386300    -0.14493400
  C     1.01434400     0.08374200     0.07779400
  C     1.79794500     1.06758800    -0.31754300
  C    -0.30201300     0.17260300     0.77938600
  C    -1.43333600    -0.39491500    -0.03178500
  C    -2.52228400     0.27880400    -0.36209500
  H     2.73533000     0.86791800    -0.81689600
  H     1.50257100     2.09164200    -0.14551700
  H    -0.49903000     1.21527600     1.02900300
  H    -0.21729400    -0.38421000     1.71946800
  H    -1.32037300    -1.42658900    -0.34955800
  H    -2.66493800     1.31159000    -0.06259900
  H    -3.31269700    -0.17778500    -0.94403400
