   12
bigqm7wdef2tzvp_001179.xyz
  C     2.31299000    -0.17017800     0.00665100
  N     1.00731100    -0.78553800     0.00381500
  C    -0.00436700    -0.01255600    -0.00906900
  N    -0.04794100     1.34417700    -0.04130600
  C    -1.34516700    -0.68210000    -0.00863600
  O    -2.38058600    -0.07383900     0.01829600
  H     3.08144900    -0.94078700    -0.00197700
  H     2.47012700     0.44997700     0.89995600
  H     2.46217400     0.47039700    -0.87276800
  H     0.77157100     1.89535600     0.12616900
  H    -0.94982600     1.77735500     0.05929100
  H    -1.28713400    -1.78305700    -0.02827800
