   18
bigqm7wdef2tzvp_001687.xyz
  C     1.20376600     2.83939500     0.00000000
  C     1.26144100     1.31775200     0.00000000
  C    -0.11912600     0.69596200     0.00000000
  O     0.00000000    -0.70277800     0.00000000
  C    -1.23940200    -1.36523300     0.00000000
  C    -0.99845200    -2.85705000     0.00000000
  H     2.20579000     3.26941100     0.00000000
  H     0.68080900     3.21598400     0.88215600
  H     0.68080900     3.21598400    -0.88215600
  H     1.80529600     0.95925300     0.87710900
  H     1.80529600     0.95925300    -0.87710900
  H    -0.68388400     1.02814300    -0.88526800
  H    -0.68388400     1.02814300     0.88526800
  H    -1.82250100    -1.07001200    -0.88489500
  H    -1.82250100    -1.07001200     0.88489500
  H    -0.43299000    -3.15268400    -0.88438500
  H    -1.94860100    -3.39351000     0.00000000
  H    -0.43299000    -3.15268400     0.88438500
