   13
bigqm7wdef2tzvp_007691.xyz
  C     2.00186400    -0.07296600    -0.54682100
  N     0.89984100     0.03736500     0.39520300
  N     0.12435100    -1.13114800     0.51087400
  C    -1.09812100    -1.05179100    -0.16610900
  N    -1.65682900     0.04070200    -0.49715800
  N    -1.10655400     1.22232900     0.01283500
  C     0.12450900     1.19177700     0.33854200
  H     1.65887600    -0.26233200    -1.56920000
  H     2.66625300    -0.87622900    -0.23329200
  H     2.55429800     0.86782000    -0.53205100
  H     0.06904900    -1.44635900     1.47076100
  H    -1.55750600    -1.98958900    -0.46318800
  H     0.61385600     2.11983600     0.62102100
