   16
bigqm7wdef2tzvp_008630.xyz
  C    -2.31136100    -0.13381300    -0.36546000
  C    -1.00921500     0.03297700     0.38568000
  N    -0.18447400    -1.17239500     0.49585200
  C     0.91906700    -0.63957900    -0.10460700
  O     2.02429700    -1.06089300    -0.30227200
  C     0.18263400     0.68453500    -0.37062600
  C     0.81877000     1.92472100     0.22029600
  H    -3.00790200    -0.76625200     0.18851600
  H    -2.13555400    -0.59049900    -1.34123300
  H    -2.78791500     0.83682000    -0.51575500
  H    -1.18164000     0.50505200     1.35774300
  H    -0.31642700    -2.03950600     0.98947500
  H    -0.03070200     0.81489400    -1.43336600
  H     1.02476900     1.78987600     1.28408400
  H     0.16815600     2.79337300     0.10475800
  H     1.76478200     2.13711000    -0.27871400
