   14
bigqm7wdef2tzvp_006001.xyz
  C     2.55141900    -0.27805200    -0.00000300
  N     1.14506300    -0.57433500     0.00000000
  C     0.19616300     0.40040500     0.00000200
  N     0.37879500     1.66288900     0.00000200
  C    -1.20745200    -0.10658400     0.00000100
  F    -1.29250300    -1.45650000     0.00000100
  C    -2.29981500     0.62777600    -0.00000300
  H     3.11063800    -1.21109200    -0.00001100
  H     2.84096400     0.29401600     0.88720700
  H     2.84095800     0.29402900    -0.88720600
  H     0.84229600    -1.52915600     0.00000500
  H     1.36299700     1.90922900     0.00000100
  H    -2.19659500     1.70194200    -0.00000200
  H    -3.27761000     0.16838000    -0.00000500
