   12
bigqm7wdef2tzvp_011758.xyz
  C     2.12037300     1.58925900     0.00000000
  C     0.79533700     1.54452400     0.00000000
  C     0.00000000     0.31498900     0.00000000
  C    -1.42021600     0.21634700     0.00000000
  C    -1.64106400    -1.11329600     0.00000000
  O    -0.48380100    -1.77295700     0.00000000
  N     0.54851900    -0.87258000     0.00000000
  H     2.64278400     2.53668300     0.00000000
  H     2.71519800     0.68446500     0.00000000
  H     0.22109400     2.46440900     0.00000000
  H    -2.14241500     1.01363200     0.00000000
  H    -2.53247100    -1.71841100     0.00000000
