   13
bigqm7wdef2tzvp_005132.xyz
  C    -0.12409600     3.01802400     0.00000000
  C    -0.69645000     1.64054900     0.00000000
  C     0.00000000     0.51112400     0.00000000
  F     1.34956600     0.55194900     0.00000000
  C    -0.54632600    -0.83301900     0.00000000
  C     0.20399800    -1.92268600     0.00000000
  F    -0.34444700    -3.14019100     0.00000000
  H    -0.45942800     3.57462300     0.87848000
  H    -0.45942800     3.57462300    -0.87848000
  H     0.96402900     3.00157100     0.00000000
  H    -1.77460000     1.53520100     0.00000000
  H    -1.62452600    -0.92781500     0.00000000
  H     1.28513400    -1.94797400     0.00000000
