   11
bigqm7wdef2tzvp_008402.xyz
  C    -0.79791800     1.99874700     0.00000000
  C     0.00000000     0.75226700     0.00000000
  N     1.26487600     0.68694300     0.00000000
  N     1.68414000    -0.73695700     0.00000000
  C     0.65984300    -1.47614600     0.00000000
  C    -0.59393300    -0.64485700     0.00000000
  O    -1.74074400    -0.97444700     0.00000000
  H    -0.14368400     2.86748000     0.00000000
  H    -1.44718700     2.02707700     0.87736400
  H    -1.44718700     2.02707700    -0.87736400
  H     0.71294200    -2.55603200     0.00000000
