   20
bigqm7wdef2tzvp_002971.xyz
  C     1.72023300    -1.35174000    -0.36502200
  C     1.48951300     0.08564000     0.00241800
  C     2.11611100     1.07700200    -0.61926000
  C     0.51472500     0.34154700     1.12296000
  C    -0.89594800    -0.20119400     0.87855900
  C    -1.55843900     0.38182400    -0.35870000
  N    -2.93218200    -0.09519700    -0.47578900
  H     2.51072800    -1.45288400    -1.10789600
  H     0.81184900    -1.80242900    -0.77423100
  H     1.99419600    -1.93819200     0.51651200
  H     2.82825400     0.88865600    -1.41423300
  H     1.93982400     2.11224100    -0.35145100
  H     0.45881700     1.41648600     1.31210200
  H     0.90662800    -0.11917000     2.03620900
  H    -1.52204000     0.01988900     1.74561500
  H    -0.86580100    -1.29286700     0.79244600
  H    -0.94050200     0.16004600    -1.24026500
  H    -1.58547900     1.47164100    -0.26633400
  H    -2.94584800    -1.10011600    -0.59594500
  H    -3.38251700     0.30460400    -1.28773100
