   16
bigqm7wdef2tzvp_004712.xyz
  C     1.39998900     1.82665400    -0.02128100
  C     0.75918800     0.46829500    -0.29855500
  C     1.64303200    -0.66242200     0.23849200
  O     1.17038100    -1.94181400    -0.10531900
  C    -0.61174200     0.38221800     0.30413300
  C    -1.67974900     0.00886000    -0.37373800
  F    -2.89171100    -0.07488900     0.19045500
  H     2.39102400     1.88856300    -0.47461500
  H     1.51068300     1.99321000     1.05329000
  H     0.78959900     2.63553700    -0.42355100
  H     0.67808500     0.32372600    -1.38013100
  H     1.74576900    -0.55568700     1.32835900
  H     2.64123500    -0.57948700    -0.19493800
  H     0.26035700    -2.01358700     0.19401500
  H    -0.72186200     0.62686800     1.35737100
  H    -1.69684000    -0.25225100    -1.42564700
