   12
bigqm7wdef2tzvp_011718.xyz
  C     2.42625300    -0.35569600    -0.00000100
  O     1.45932800     0.68308300    -0.00000600
  C     0.18020400     0.30332700    -0.00000100
  C    -0.90647800     1.10988900    -0.00000000
  O    -2.00357300     0.29259700     0.00000900
  C    -1.51019600    -0.94307700    -0.00001100
  N    -0.22211400    -1.01146000     0.00000900
  H     3.39245100     0.14289100    -0.00000500
  H     2.32927400    -0.98304100    -0.88784000
  H     2.32927700    -0.98303000     0.88784600
  H    -1.06711100     2.17066100    -0.00000200
  H    -2.21382800    -1.75934900    -0.00000900
