   11
bigqm7wdef2tzvp_011785.xyz
  C    -0.02982100     2.95477900     0.00000000
  C    -0.00949600     1.75597600     0.00000000
  C     0.00000000     0.33845500     0.00000000
  C    -1.10672100    -0.54338000     0.00000000
  N    -0.72418600    -1.80360400     0.00000000
  N     0.61226000    -1.75126900     0.00000000
  H     1.13479900    -2.60782500     0.00000000
  C     1.09601400    -0.49832600     0.00000000
  H    -0.04776100     4.01787600     0.00000000
  H    -2.15419600    -0.28866300     0.00000000
  H     2.15078000    -0.28231200     0.00000000
