   16
bigqm7wdef2tzvp_009838.xyz
  O     2.88567800     0.46206300    -0.13289400
  C     2.16623400    -0.72194000     0.16719500
  C     0.75829100    -0.54541100    -0.34910200
  N     0.10123100     0.55281000     0.33510800
  C    -1.22140900     0.83933100    -0.16674100
  C    -2.23298800    -0.15427100     0.36302700
  O    -3.24792600    -0.45343500    -0.19932800
  H     3.72993700     0.44028300     0.31682600
  H     2.13408500    -0.89490700     1.24874600
  H     2.62538600    -1.59215400    -0.31580000
  H     0.20155800    -1.46999500    -0.16704600
  H     0.79312100    -0.39777400    -1.44032700
  H     0.69384800     1.36908500     0.28565300
  H    -1.30390600     0.86732000    -1.26311700
  H    -1.54027100     1.81746400     0.20904800
  H    -1.96516300    -0.58426900     1.35176300
