   19
bigqm7wdef2tzvp_002510.xyz
  C     1.41600700    -1.14301100    -0.79895800
  C     1.32571400    -0.18834500     0.37964400
  O     1.61465200     1.14776200    -0.01075000
  C    -0.04631600    -0.19729100     1.05947100
  C    -1.23540400    -0.01541800     0.15042300
  C    -1.43698500     1.34415100    -0.45169800
  C    -2.06906200    -1.02084300    -0.09111900
  H     2.42782200    -1.15102200    -1.21224900
  H     0.71888000    -0.85105700    -1.58535600
  H     1.17277400    -2.16132700    -0.49001100
  H     2.05402300    -0.49997400     1.14074200
  H     2.44980800     1.15386000    -0.48058100
  H    -0.03690800     0.59364700     1.81535000
  H    -0.14259400    -1.14856100     1.58733500
  H    -1.49790500     2.10308200     0.33287800
  H    -2.34891500     1.38335500    -1.04749500
  H    -0.58560900     1.61891900    -1.07615400
  H    -1.92154600    -1.99905700     0.35205700
  H    -2.93077200    -0.89942400    -0.73709700
