   13
bigqm7wdef2tzvp_003547.xyz
  C    -3.10124000     0.18342900    -0.18669500
  O    -1.83265700    -0.36926700    -0.41415200
  C    -0.89504800     0.02206800     0.56031600
  C     0.39881000    -0.66366100     0.28605800
  C     1.51968000    -0.03378000     0.00640700
  F     1.67137600     1.27116600    -0.06528100
  F     2.66915300    -0.62440200    -0.23377700
  H    -3.75818300    -0.17000000    -0.97958000
  H    -3.07197800     1.28078600    -0.21027200
  H    -3.50982700    -0.13171000     0.78278300
  H    -1.25990800    -0.26212200     1.55867800
  H    -0.76767300     1.11179300     0.55663500
  H     0.43085400    -1.74381900     0.29997900
