   13
bigqm7wdef2tzvp_006702.xyz
  C    -2.45351400     0.38483200     0.00000000
  C    -1.15592700     0.10194000     0.00000000
  C     0.00000000     1.06721400     0.00000000
  C     1.23541700     0.16881000     0.00000000
  O     2.38066700     0.53831400     0.00000000
  C     0.74982900    -1.22950400     0.00000000
  C    -0.58735600    -1.24636700     0.00000000
  H    -2.81306700     1.40613300     0.00000000
  H    -3.19651500    -0.40353400     0.00000000
  H     0.01317400     1.71148000     0.88052600
  H     0.01317400     1.71148000    -0.88052600
  H     1.41542700    -2.08016700     0.00000000
  H    -1.20822400    -2.13345200     0.00000000
