   17
bigqm7wdef2tzvp_002543.xyz
  C     1.81563000     0.00891800     1.20932100
  N     1.03366300     0.19039600    -0.00002300
  C     1.81567000     0.00865400    -1.20930100
  N    -0.08723800    -0.62640400     0.00004800
  C    -1.37016500    -0.15810500     0.00001000
  C    -1.53387000     1.34054300    -0.00014500
  O    -2.30286700    -0.93273400     0.00009800
  H     2.64658100     0.71476600     1.20821900
  H     2.22556500    -1.01010400     1.29581600
  H     1.18841300     0.20713500     2.07724300
  H     2.64662000     0.71450300    -1.20832700
  H     1.18848100     0.20668000    -2.07728700
  H     2.22560800    -1.01038700    -1.29556000
  H     0.02747000    -1.63413800     0.00016700
  H    -1.05850800     1.78127900     0.87634300
  H    -2.59735000     1.56304500    -0.00016400
  H    -1.05851500     1.78109700    -0.87672700
