   16
bigqm7wdef2tzvp_008784.xyz
  C    -3.00310900    -0.42992600    -0.03045100
  C    -1.98210100     0.17168000     0.14358400
  C    -0.71351100     0.86416900     0.33574200
  C     0.38969200     0.32311100    -0.58112100
  C     1.80341300     0.75841300    -0.14383400
  C     1.93353100    -0.64867800     0.47015900
  N     0.77835800    -1.07355300    -0.33786200
  H    -3.91565700    -0.95393300    -0.18402100
  H    -0.40553700     0.76307800     1.38127500
  H    -0.84670100     1.93286400     0.14491800
  H     0.11617600     0.52040200    -1.62038200
  H     1.86439600     1.60787900     0.53499100
  H     2.47437900     0.91600900    -0.98553000
  H     1.76054300    -0.65391800     1.55215800
  H     2.85307600    -1.19788000     0.26189900
  H     0.08333600    -1.65224500     0.11525400
