   14
bigqm7wdef2tzvp_010031.xyz
  O    -2.56986800    -0.39957400    -0.72754600
  C    -1.65635000    -0.76321700     0.28234600
  C    -0.95731100     0.43759500     0.88443300
  O    -0.17597600     1.12832000    -0.09868200
  C     1.05705300     0.68223400    -0.34437000
  N     1.55824900    -0.32615200     0.23104100
  O     2.86711900    -0.53731300    -0.20577800
  H    -2.08802900     0.07843900    -1.40539800
  H    -0.91367300    -1.47846300    -0.08651200
  H    -2.23523900    -1.25452500     1.06638000
  H    -0.32200800     0.14022800     1.72049000
  H    -1.69314800     1.16975100     1.21457700
  H     1.58510600     1.27771200    -1.08401700
  H     3.12870100    -1.32120600     0.27878500
