   13
bigqm7wdef2tzvp_007612.xyz
  C    -1.85692500    -0.06469000     0.72208000
  C    -0.94825900     0.08648800    -0.48719900
  O    -0.14335000    -1.08742400    -0.67337200
  C     0.96640400    -1.09804900     0.07422800
  N     1.58029200    -0.09152800     0.54787900
  N     1.14788400     1.17218500     0.10658100
  C    -0.02180800     1.26182900    -0.37167700
  H    -2.48189000    -0.95161800     0.61660000
  H    -2.50361400     0.81026900     0.80674500
  H    -1.27040400    -0.14624200     1.63815800
  H    -1.54298000     0.16802100    -1.39691200
  H     1.35565300    -2.09569400     0.24392900
  H    -0.34365900     2.23658700    -0.72735000
