   14
bigqm7wdef2tzvp_012700.xyz
  C    -2.26855900    -0.24691300    -0.05628300
  C    -0.96038000    -0.03995000    -0.03264000
  O    -0.40781600     1.15840300     0.32490300
  C     0.93349700     1.24033700    -0.15462900
  C     1.36338200    -0.18100200    -0.41640600
  N     1.17459500    -1.13136000     0.66092000
  C     0.12624900    -0.99468900    -0.35322900
  H    -2.96574000     0.55009900     0.15895700
  H    -2.65109300    -1.23123500    -0.28162500
  H     1.52886400     1.74721900     0.60701300
  H     0.96235800     1.82602500    -1.07858200
  H     2.17226300    -0.37686600    -1.10747000
  H     0.90455800    -0.67028000     1.52391700
  H    -0.07598300    -1.85936000    -0.96875000
