   11
bigqm7wdef2tzvp_009398.xyz
  F    -2.00373500    -1.04959100     0.07459300
  C    -0.69247600    -1.12542100    -0.32030000
  C     0.12717100    -0.05609600     0.41958000
  C     1.55070300    -0.22875200     0.13139200
  C     2.70449800    -0.40787600    -0.12135200
  C    -0.32942300     1.29554800     0.07087300
  N    -0.69759800     2.34442900    -0.20599000
  H    -0.63771300    -0.97211900    -1.39908100
  H    -0.30220700    -2.11114900    -0.06271300
  H    -0.04150100    -0.19140000     1.49232300
  H     3.73537800    -0.55442900    -0.34109800
