   16
bigqm7wdef2tzvp_005491.xyz
  C     1.01447200     1.40013300     0.62639800
  C     1.02053000     0.31345000    -0.43682900
  O     2.16948500    -0.50234800    -0.34803800
  C    -0.23833900    -0.55679000    -0.41070600
  F    -0.30152900    -1.18992700     0.82848900
  C    -1.49726600     0.19761000    -0.68503200
  C    -2.52414900     0.29529600     0.14110700
  H     1.93905500     1.97289000     0.56419900
  H     0.94193800     0.96151800     1.62347800
  H     0.16958500     2.07676800     0.49409700
  H     1.06898800     0.77127700    -1.42858100
  H     2.14204500    -0.95919600     0.49630000
  H    -0.10811600    -1.35039400    -1.15406800
  H    -1.52464700     0.68575400    -1.65511200
  H    -2.51659900    -0.18919200     1.10890500
  H    -3.40585300     0.86051000    -0.13093600
