   19
bigqm7wdef2tzvp_007167.xyz
  C    -2.79082400    -0.29816800    -0.16561900
  C    -1.31468300    -0.07776400    -0.41364500
  C    -0.64398500     1.17234200     0.20388600
  C     0.57209100     0.29916500     0.58976400
  C     1.72790500     0.43603100    -0.38229200
  O     2.72296100    -0.55204800    -0.20751000
  C    -0.29851100    -0.95469900     0.35516800
  H    -3.39455500     0.46507500    -0.66218800
  H    -3.01230600    -0.25749100     0.90421100
  H    -3.11190600    -1.27407200    -0.53691600
  H    -1.11176300    -0.12032900    -1.48608400
  H    -1.18820400     1.52818900     1.08045500
  H    -0.45409100     2.02144700    -0.45589400
  H     0.94319600     0.43374000     1.60982900
  H     2.15634700     1.44437500    -0.30073500
  H     1.37252000     0.31754600    -1.40889500
  H     3.05884800    -0.48799800     0.68800500
  H    -0.72626500    -1.33606900     1.28444200
  H     0.17253600    -1.77947400    -0.17972600
