   16
bigqm7wdef2tzvp_010160.xyz
  C     0.00001800     0.30239200    -3.52711400
  N    -0.00003500    -0.45998900    -2.30337000
  C     0.00001800     0.17260300    -1.21513400
  N    -0.00002700    -0.46629400    -0.00000000
  C     0.00001800     0.17260300     1.21513400
  N    -0.00003500    -0.45998900     2.30337000
  C     0.00001800     0.30239200     3.52711400
  H     0.87832400     0.04081200    -4.12130600
  H     0.00013900     1.39033900    -3.36898600
  H    -0.87837300     0.04100200    -4.12126400
  H     0.00010000     1.26716200    -1.14072000
  H    -0.00012900    -1.47467000    -0.00000000
  H     0.00010000     1.26716200     1.14072000
  H    -0.87837300     0.04100200     4.12126400
  H     0.00013900     1.39033900     3.36898600
  H     0.87832400     0.04081200     4.12130600
