   10
bigqm7wdef2tzvp_007084.xyz
  O     2.39557300     0.30923400     0.00000000
  C     1.06698100     0.13540100     0.00000000
  C     0.00000000     1.00429000     0.00000000
  C    -1.09631600     0.12238000     0.00000000
  F    -2.36512200     0.48521700     0.00000000
  N    -0.77835300    -1.14001300     0.00000000
  N     0.57857900    -1.11275000     0.00000000
  H     1.09917400    -1.96968800     0.00000000
  H     2.59605100     1.24643900     0.00000000
  H     0.00071300     2.07933200     0.00000000
