   11
bigqm7wdef2tzvp_001890.xyz
  N    -2.92205200     0.12354800    -0.07860300
  N    -1.70408800    -0.47917000    -0.00437600
  C    -0.66697700     0.25704000    -0.01014200
  C     0.65443200    -0.33845000     0.00045900
  C     1.75587200     0.39528700    -0.00171500
  F     2.97265100    -0.15570800     0.01003700
  H    -3.63669800    -0.47141900     0.30544300
  H    -2.96598300     1.06941300     0.28534100
  H    -0.74120800     1.35061400    -0.02858300
  H     0.72000200    -1.41951300     0.01024200
  H     1.79304800     1.47837100    -0.01353100
