   12
bigqm7wdef2tzvp_010094.xyz
  N    -2.96048600     0.47571800    -0.30201100
  N    -1.93943100    -0.36804000     0.04754000
  C    -0.76720700     0.09800900     0.10631500
  N     0.26682600    -0.72517600     0.58459600
  O     1.32143500    -0.86245800    -0.37869800
  C     2.22618900     0.12621600    -0.33044800
  O     2.16123700     1.12549500     0.31228900
  H    -3.83359700     0.11606600     0.04661000
  H    -2.82506400     1.44239400    -0.03105800
  H    -0.48381200     1.12888700    -0.10309000
  H    -0.07895000    -1.67405000     0.67442600
  H     3.03779200    -0.14046600    -1.02169400
