   11
bigqm7wdef2tzvp_012585.xyz
  C    -1.70025800     0.73192800     0.02021400
  N    -1.58540200    -0.76902200    -0.11529400
  C    -0.18905200    -0.62287500    -0.01845600
  N     0.96530100    -1.20492000     0.00632000
  O     1.83159800    -0.09222800     0.01320100
  C     1.13111800     1.06640800     0.00104300
  C    -0.17808700     0.77645900    -0.01031300
  H    -2.14040200     1.05743200     0.96278300
  H    -2.22069000     1.18424400    -0.82176200
  H    -2.06879200    -1.35617000     0.54850900
  H     1.73548700     1.95839200     0.01275800
