   18
bigqm7wdef2tzvp_003864.xyz
  C     3.06599900    -0.52662000    -0.19331800
  C     1.87577400     0.37033200     0.11846300
  C     0.56545300    -0.40515700     0.18078200
  C    -0.63552300     0.45872200     0.49623100
  F    -0.78297600     1.42263300    -0.51392600
  C    -1.94889700    -0.29434100     0.58750100
  O    -2.25544100    -1.01167300    -0.58349200
  H     3.99389700     0.04558000    -0.23418000
  H     2.93795300    -1.02456700    -1.15706100
  H     3.18485000    -1.30270200     0.56653300
  H     1.79424100     1.15234200    -0.63929000
  H     2.04018900     0.88031600     1.07313500
  H     0.62895100    -1.17711600     0.95495700
  H     0.38440900    -0.92593500    -0.76265300
  H    -0.47679300     1.01267100     1.42817300
  H    -2.74519300     0.41804800     0.83516700
  H    -1.88545800    -1.02242700     1.39843000
  H    -2.30357200    -0.38414300    -1.30789400
