   19
bigqm7wdef2tzvp_009449.xyz
  C    -2.32828100    -0.91735100     0.45620500
  C    -1.35121900    -0.47898300    -0.63558500
  C     0.02702400    -0.17184400    -0.10464200
  C     0.16446300     1.15344400     0.59707500
  O     0.03071500     2.24426000    -0.30327800
  C     1.03744000    -1.02230100    -0.28013600
  C     2.45840500    -0.90090800     0.17475700
  H    -3.31523800    -1.11602200     0.03523400
  H    -2.44733300    -0.14887000     1.22222100
  H    -1.97685700    -1.82731100     0.94618700
  H    -1.74351200     0.41181300    -1.13363700
  H    -1.28242700    -1.26280600    -1.39298600
  H     1.10605100     1.22174500     1.14782600
  H    -0.64079800     1.28036500     1.32311500
  H     0.66721400     2.11766000    -1.00941800
  H     0.81848300    -1.93970300    -0.82317200
  H     2.68355500     0.05531400     0.64389200
  H     3.13867300    -1.02849600    -0.67105200
  H     2.69948000    -1.69010600     0.89197400
