   15
bigqm7wdef2tzvp_002770.xyz
  C     2.38345600    -0.43076900     0.04983400
  C     1.00387300    -0.76615400    -0.49933800
  C    -0.08357800     0.18674600    -0.03652300
  F    -0.14835100     0.17187200     1.32700300
  F     0.26275000     1.47023200    -0.38146300
  C    -1.43231600    -0.10453200    -0.62747500
  C    -2.47386800    -0.52717200     0.06449200
  H     3.11526500    -1.15187700    -0.31482800
  H     2.39015700    -0.46230500     1.13908300
  H     2.70047800     0.56321600    -0.26441700
  H     0.69755400    -1.76997800    -0.19789400
  H     1.00915800    -0.74828700    -1.59152300
  H    -1.49064200     0.04992900    -1.69924400
  H    -2.41749800    -0.67958700     1.13460600
  H    -3.41946900    -0.72875200    -0.42158700
