   19
bigqm7wdef2tzvp_004281.xyz
  C    -2.22812600    -0.04304000    -1.04909100
  C    -1.82162900    -0.69128900     0.26687700
  C    -0.83473800     0.15896500     1.07450500
  C     0.45576700     0.43521300     0.33365000
  N     0.81146800     1.55777200    -0.16053500
  N     1.24964100    -0.66108200     0.15711600
  C     2.55005000    -0.54852000    -0.45757600
  H    -2.94426000    -0.66542500    -1.58732200
  H    -1.36199500     0.11335000    -1.69438300
  H    -2.69240200     0.93117000    -0.87740400
  H    -1.38131900    -1.67225000     0.06968600
  H    -2.70700700    -0.86771100     0.88277600
  H    -0.60899800    -0.34203300     2.02105300
  H    -1.29582800     1.11600400     1.32566600
  H     0.10011700     2.25889600     0.01024800
  H     1.07415500    -1.45631200     0.74159700
  H     2.45308700    -0.11191800    -1.45140700
  H     2.98662800    -1.54263800    -0.54579500
  H     3.22212000     0.09405600     0.11903300
