   15
bigqm7wdef2tzvp_007851.xyz
  O     2.07016300     0.23006700     0.38564100
  C     0.85792500     0.00152600    -0.29626000
  C     0.34959000    -1.44274700    -0.22343200
  N    -1.08663200    -1.26268500    -0.33837500
  C    -1.40142600    -0.17265700     0.57667400
  C    -0.26777400     0.82075100     0.34780300
  F    -0.66795600     1.84180500    -0.50270400
  H     2.78554900    -0.17475800    -0.10586900
  H     0.92574500     0.31874500    -1.34130900
  H     0.66859300    -1.87036900     0.74098700
  H     0.73572000    -2.07011200    -1.02842800
  H    -1.60924300    -2.10420900    -0.14626600
  H    -1.38856800    -0.48585400     1.63186000
  H    -2.37024000     0.27642500     0.35999000
  H     0.07927500     1.29091400     1.26816900
