   17
bigqm7wdef2tzvp_006370.xyz
  C    -2.81276900    -0.14158700     0.03517500
  O    -1.49572800     0.14760400     0.41790600
  C    -0.54823500    -0.30787100    -0.51152300
  C     0.82768300     0.10504800    -0.05176200
  C     1.07190200     1.58451100     0.04653300
  C     1.61414100    -0.83884200     0.73711500
  O     1.86630900    -0.66020100    -0.64976700
  H    -3.47238700     0.24585100     0.81000900
  H    -2.97366400    -1.22315900    -0.06287600
  H    -3.06591100     0.33449500    -0.92120100
  H    -0.74493400     0.12614500    -1.50410700
  H    -0.58686900    -1.40080400    -0.61268600
  H     0.37427800     2.03247000     0.75446900
  H     0.92136800     2.05576100    -0.92730100
  H     2.09193600     1.78436400     0.37311500
  H     1.18698000    -1.79896300     1.01251300
  H     2.38822400    -0.46293800     1.39972800
