   16
bigqm7wdef2tzvp_005037.xyz
  C    -0.49196100    -2.02484900     0.00138100
  C    -0.58899500    -0.54254800    -0.20403300
  C     0.47824400     0.12911900    -1.03038800
  C     1.52116700     0.85032300    -0.17509600
  O     2.15199700     0.00203900     0.76314900
  C    -1.58088000     0.13796700     0.34424400
  F    -1.71161600     1.46759500     0.17487300
  H     0.48418500    -2.28964600     0.41440700
  H    -0.58325500    -2.54636200    -0.95509500
  H    -1.26827100    -2.39981300     0.66924100
  H     0.03080200     0.86113300    -1.70711400
  H     0.98114500    -0.62316600    -1.64169500
  H     1.05434000     1.70460700     0.32677200
  H     2.31446900     1.23429800    -0.81784500
  H     1.52340900    -0.18971700     1.46140400
  H    -2.37369700    -0.27607400     0.95423300
