   12
bigqm7wdef2tzvp_010549.xyz
  F     2.79536800    -1.82550900     0.00000000
  C     1.46682700    -1.44859700     0.00000000
  C     1.38210900     0.07268000     0.00000000
  C     0.00000000     0.52432000     0.00000000
  C    -1.15312100     0.86444200     0.00000000
  C    -2.46586600     1.26313700     0.00000000
  C    -3.61503300     1.61052200     0.00000000
  H     0.99302400    -1.86574100     0.89065400
  H     0.99302400    -1.86574100    -0.89065400
  H     1.89944100     0.46137300    -0.88051800
  H     1.89944100     0.46137300     0.88051800
  H    -4.63274000     1.91929300     0.00000000
