   12
bigqm7wdef2tzvp_012562.xyz
  C     1.39203100    -0.64487600    -0.43328400
  O     1.43448900     0.79011900    -0.27619200
  C     0.29575200     0.76398100     0.59067700
  C    -1.00598300     1.05914000    -0.09583700
  N    -1.67744100     0.02633300    -0.40047800
  O    -1.02352700    -1.12074000     0.02264300
  C     0.23823800    -0.76296200     0.56813300
  H     2.33588900    -1.10503700    -0.13569900
  H     1.12582200    -0.94638600    -1.44852600
  H     0.46377700     1.32615900     1.50983500
  H    -1.39791100     2.03474200    -0.34445300
  H     0.40658800    -1.34053200     1.47244600
