   20
bigqm7wdef2tzvp_010988.xyz
  C     2.66483800     0.36242000    -0.25405500
  C     1.58150300    -0.58948300     0.22388100
  N     0.25998700    -0.21757900    -0.23186400
  C    -0.76225400    -1.19142200     0.10760200
  C    -2.07271700    -0.47685800    -0.21802300
  C    -1.73308000     1.02164000    -0.05218800
  C    -0.24271300     1.03800400     0.30042300
  H     3.64941400    -0.01376300     0.02768500
  H     2.55277700     1.35453900     0.18592200
  H     2.62925600     0.46379300    -1.33981400
  H     1.60865300    -0.65689800     1.32847800
  H     1.79061400    -1.59294600    -0.15603300
  H    -0.72307900    -1.44677500     1.18325300
  H    -0.61916300    -2.11491500    -0.45643500
  H    -2.88165000    -0.79930800     0.43678600
  H    -2.37449700    -0.68882100    -1.24341500
  H    -2.32899200     1.50085000     0.72402000
  H    -1.91259800     1.56131300    -0.98149400
  H    -0.10765400     1.07981200     1.39779600
  H     0.28354300     1.89036900    -0.12954800
