   13
bigqm7wdef2tzvp_001936.xyz
  C    -2.90354400     0.27705300     0.07020400
  N    -1.65674600    -0.43302700    -0.08887300
  C    -0.45063300     0.16631800    -0.05453000
  C     0.75566900    -0.43590000     0.00587400
  C     1.95446000     0.36866700    -0.00833500
  O     3.08802700    -0.05144900     0.04145400
  H    -3.69205700    -0.22456900    -0.49069900
  H    -2.79875900     1.28495900    -0.33096700
  H    -3.21286300     0.35253300     1.11749400
  H    -1.67850400    -1.43165800     0.02353700
  H    -0.49110300     1.25208600    -0.10305800
  H     0.86129600    -1.51325200     0.06359800
  H     1.76928000     1.46585700    -0.06870700
