   11
bigqm7wdef2tzvp_011224.xyz
  N     2.79793600     0.01238800    -0.37588400
  C     1.72870100     0.00809900     0.03791200
  C     0.37004900    -0.00358700     0.56325500
  C    -0.49781500    -1.15340200     0.03184600
  O    -1.78215200    -0.55893100    -0.18871300
  N    -1.64417800     0.80738900    -0.26855600
  C    -0.48704900     1.15538300     0.10391800
  H     0.43112700    -0.00097700     1.65595400
  H    -0.61708300    -1.97077400     0.73854200
  H    -0.11153700    -1.53154200    -0.91757300
  H    -0.20491300     2.19733500     0.12227300
