26
BNPAH_00311
  C           3.58641351747100     -0.07580381420492      0.00039014270119
  B           2.90758977248401      1.27475339080146      0.00041476570208
  C           1.38859240182552      1.26536624995132      0.00021178459121
  C           0.69147930067626      0.03983556560338      0.00001605990197
  C           1.39546469280261     -1.19065648567824      0.00000246177457
  C           0.67226016435299     -2.39364171639571     -0.00020204289909
  C          -0.68281286829065     -2.40250821901986     -0.00037749425702
  C          -1.40901085048403     -1.19083242796335     -0.00036315142512
  C          -2.80386464300754     -1.18915606002836     -0.00053734084200
  C          -3.50923352070626     -0.01010549091574     -0.00051372919544
  C          -2.82228355128004      1.18392219183576     -0.00031597876246
  C          -1.43123208088754      1.21085314122104     -0.00014134148665
  C          -0.72520436174152      2.43937647631001      0.00006784603170
  C           0.62727632583613      2.45619822836067      0.00023477286748
  N          -0.71638337001951      0.01605637486521     -0.00016419258905
  C           2.81627637858397     -1.20092261467966      0.00018923730461
  H           4.66377236621593     -0.21186002684762      0.00052982341207
  H           3.49449153107310      2.32498331125416      0.00059586405637
  H           1.22223294376213     -3.32841593007756     -0.00021391374824
  H          -1.25100369435818     -3.32164718055102     -0.00053381501676
  H          -3.30243662111882     -2.14797112544484     -0.00068698370873
  H          -4.59206724344303     -0.01908982892253     -0.00064887541509
  H          -3.33809512613274      2.13348924709733     -0.00028941004363
  H          -1.31534406467586      3.34534701513759      0.00008873794696
  H           1.15880413115373      3.40138228162306      0.00039406082232
  H           3.27385946990833     -2.18860355333158      0.00016471227676
26
BNPAH_00334
  C           3.51887872662930     -0.00193068595737      0.00038581322337
  C           2.86647256367480      1.23444937185624      0.00041815432466
  C           1.46881631554487      1.31409626693290      0.00024165120161
  B           0.73500640159547      0.01183984201766      0.00001860286841
  C           1.45631076528762     -1.29891593383052     -0.00000986898101
  C           0.65354915170954     -2.47975989101936     -0.00021215637654
  C          -0.71791309127712     -2.43945413173867     -0.00037980607478
  C          -1.42888080878382     -1.19773481645736     -0.00036507694055
  N          -2.78750278148293     -1.16655698102738     -0.00053730712341
  C          -3.48888589965217     -0.00372775561839     -0.00051488686673
  C          -2.86594609856030      1.20631278349988     -0.00031882999513
  C          -1.44897923687721      1.26107544512205     -0.00014135872727
  C          -0.69898895268744      2.47638130429032      0.00006604538682
  C           0.67733012443937      2.49896870695715      0.00025377868961
  C          -0.75718020304768      0.02987621436559     -0.00017288016654
  C           2.85090088840170     -1.23446837511320      0.00018116521776
  H           4.60306842390309     -0.00894324259443      0.00053053985512
  H           3.47953383384769      2.13479509615286      0.00058397487887
  H           1.12597803988206     -3.46091870505115     -0.00023096996545
  H          -1.28706850141998     -3.36324522106795     -0.00051840787712
  H          -3.29467881787217     -2.03690038043851     -0.00067726411654
  H          -4.56511092274724     -0.10742622993057     -0.00066166156037
  H          -3.46683625534173      2.10661045130250     -0.00030579950969
  H          -1.24639348884378      3.41239978990804      0.00008384007620
  H           1.16270412277941      3.47425138920123      0.00041521444168
  H           3.45535770089863     -2.14072131176157      0.00017649411703
36
BNPAH_01968
  C           2.40668408771546     -0.18718854730648     -0.00004108899433
  C           2.46037499592188     -1.60982255456389      0.00000072614633
  C           1.31990553120654     -2.34280293539762      0.00002124491946
  C           0.02146235205736     -1.73155191798694      0.00001760081300
  C          -1.15068581093043     -2.48569323674999      0.00004719008845
  B          -2.47698859286927     -1.80311320413270      0.00004691711273
  C          -3.87155774915282     -2.50795095944036      0.00003960606247
  C          -4.00586123842283     -3.90778848067568      0.00003991448017
  C          -5.23099371629382     -4.52838272404477     -0.00000999204565
  C          -6.39956711564973     -3.76067619780748     -0.00007888988827
  C          -6.31045904228945     -2.39232237114155     -0.00007078202655
  C          -5.05657089551554     -1.74680293326195     -0.00000304584164
  C          -4.94856830416778     -0.29523627618695      0.00002575301811
  N          -6.09371894733784      0.42290383265738      0.00006568814362
  C          -6.19125269959010      1.75679814687195      0.00005413502904
  C          -5.03672552228402      2.49555314155604      0.00000185754604
  C          -3.82624298244740      1.82636186919967     -0.00001356196514
  C          -3.71935118257747      0.42838319161569      0.00001149334811
  C          -2.46585778144233     -0.28310584060458      0.00001752904141
  C          -1.24400817044915      0.38277878899231     -0.00000847040295
  C          -0.02355363903228     -0.29375655398673     -0.00000113105446
  C           1.20302358399059      0.43754052882213     -0.00004277980638
  H           3.32556027148978      0.38675089745032     -0.00006220424126
  H           3.42431586378669     -2.10617754839752      0.00001059689837
  H           1.36800976774959     -3.42670614886245      0.00005301667227
  H          -1.01221969565780     -3.56589624621279      0.00005973896420
  H          -3.10425354582564     -4.50857717557305      0.00008060616388
  H          -5.29742240788204     -5.61003744104743     -0.00001282883427
  H          -7.37051371307786     -4.24022339800352     -0.00012713694508
  H          -7.25022467418748     -1.84734194811416     -0.00014805335251
  H          -6.95229121628516     -0.10516681168243      0.00010315890829
  H          -7.18796896519303      2.17246727658361      0.00008740500859
  H          -5.08482982867328      3.57511641569738     -0.00001497966442
  H          -2.91613050848871      2.41054189135519     -0.00004437329597
  H          -1.17959598672319      1.46903027650900     -0.00003184629665
  H           1.15117847852860      1.52209619387038     -0.00007201370901
36
BNPAH_02011
  C           2.36372339368297     -0.24060849196907      0.00001186906871
  C           2.35792480056069     -1.66375187522131      0.00003445910270
  C           1.18903372000209     -2.35346556669117      0.00004148700209
  C          -0.06326560983044     -1.66856248851271      0.00001081386207
  C          -1.27787582393500     -2.34924131236025      0.00003050999580
  C          -2.51161695066141     -1.70458328399498     -0.00000486017675
  C          -3.75425144101210     -2.46235283439054     -0.00001085918204
  B          -3.79700012617229     -3.98772258881714     -0.00001439373364
  C          -5.15580034652978     -4.61822031969809     -0.00000746544912
  C          -6.28380307507227     -3.81986168578121     -0.00002712903935
  C          -6.21143241293865     -2.43019087952742     -0.00003210432400
  C          -4.98519744078357     -1.75557747844310     -0.00000523644482
  C          -4.96114387564462     -0.29630687218244      0.00000134487783
  C          -6.13134539588248      0.44373487664616      0.00006251905899
  N          -6.13385264687728      1.78089470765926      0.00004709042057
  C          -4.99653023351333      2.50375099159758      0.00000575816852
  C          -3.80740427642766      1.84648679064587     -0.00001868512470
  C          -3.74069383880383      0.43853991594794     -0.00001599274741
  C          -2.48586886190811     -0.27117673459031     -0.00004239200019
  C          -1.27555752695197      0.41437047834263     -0.00005161077565
  C          -0.05319197596874     -0.24615402295583     -0.00001374752279
  C           1.19329658663416      0.44541984709088     -0.00002887369394
  H           3.30860510174376      0.28890997124170     -0.00001179247504
  H           3.30129080332104     -2.19676981477769      0.00005080984977
  H           1.18515047697413     -3.43728714048813      0.00005646696514
  H          -1.26670196369739     -3.42974284904263      0.00005100738734
  H          -2.80368735714161     -4.66933610124157     -0.00002901999374
  H          -5.31277812587205     -5.69407401304820     -0.00001229121716
  H          -7.27638620056611     -4.26613418785882     -0.00003523682367
  H          -7.14929455936781     -1.88928812534838     -0.00005612848147
  H          -7.10543882690097     -0.01865832615600      0.00010400273004
  H          -7.02039120147609      2.25922955046444      0.00007591013850
  H          -5.09609238613614      3.57891434902699     -0.00000122613762
  H          -2.90787649590087      2.44165333750387     -0.00002995170329
  H          -1.24997678814006      1.49691404569387     -0.00007384953357
  H           1.18853088119381      1.53024813123583     -0.00006120204811
36
BNPAH_02055
  C           2.32935235946109     -0.24315329412392     -0.00001692906209
  C           2.32593954177208     -1.66576870626081      0.00004694113481
  C           1.15851619759991     -2.35777745858777      0.00004841478404
  C          -0.09539334085550     -1.67587210601741      0.00000228210065
  C          -1.30822947588600     -2.35991755123418      0.00001301583051
  C          -2.54910731533301     -1.72316304986090     -0.00002179330898
  C          -3.80494551992089     -2.44554930259908     -0.00001155361185
  C          -3.82251234514179     -3.85935093521617     -0.00001012744927
  C          -4.97014341106384     -4.61021470749844     -0.00000940575461
  B          -6.32336692858332     -3.93533265464819     -0.00001103534389
  C          -6.26454545110869     -2.43612241513319     -0.00000680191113
  C          -5.05196170036601     -1.75253700691171     -0.00001319158184
  C          -5.01543150094574     -0.29165350167940     -0.00001910169193
  C          -6.16718572122068      0.49846248872211     -0.00001191098345
  C          -6.12884757179751      1.88424632747362      0.00003294151979
  C          -4.90937108095081      2.50483678336695      0.00005846364980
  N          -3.80620960449403      1.74829454974130      0.00003159605156
  C          -3.78396408888748      0.39571781041443     -0.00000509711134
  C          -2.51767762596080     -0.29118747497389     -0.00004827628397
  C          -1.31361535833176      0.39841493436755     -0.00007545810360
  C          -0.08605742123664     -0.25436310095640     -0.00003626150076
  C           1.15726846960718      0.44033837047074     -0.00006583921339
  H           3.27288587751736      0.28833485196005     -0.00002105578665
  H           3.26997637458221     -2.19726235258087      0.00009072335822
  H           1.15901489848896     -3.44166573002360      0.00008673178835
  H          -1.26282131516834     -3.43906541566019      0.00005858419514
  H          -2.87125835955875     -4.37958886916215     -0.00001247823025
  H          -4.83550769004097     -5.68975669693817     -0.00000549972619
  H          -7.36683738128190     -4.53945134276694     -0.00001761306291
  H          -7.17951058050771     -1.85146473293345     -0.00001381379662
  H          -7.12917745053910      0.00704044101020     -0.00003034936562
  H          -7.03585482706354      2.47129780957029      0.00004403893844
  H          -4.76512950213152      3.57541280229228      0.00010549345655
  H          -2.91442167509653      2.21825314346238      0.00004462610856
  H          -1.27202529848444      1.48433508086176     -0.00008847107822
  H           1.15125582292854      1.52523301205319     -0.00011178895785
36
BNPAH_02078
  C           2.28644480954305     -0.24017800828890      0.00000423950906
  C           2.30742482454271     -1.66718804929595      0.00002208584207
  C           1.15871213858673     -2.38727157433427      0.00005282353842
  C          -0.10036862367019     -1.71762619103409      0.00002332262808
  C          -1.31998086415439     -2.37022411534914      0.00004807485051
  C          -2.54662554849466     -1.71548908334668      0.00000509365883
  C          -3.81025255987162     -2.42834139949806     -0.00000693975134
  C          -3.80057500731517     -3.82940238770544     -0.00005242061273
  C          -4.97981530483546     -4.56588469327216     -0.00006112979980
  C          -6.22899788207859     -3.97322373518331     -0.00002004576765
  B          -6.34488198005329     -2.48098282952209      0.00002617305528
  C          -5.03203068870050     -1.70911520782844      0.00002678796376
  C          -4.95362309226850     -0.26522906988834      0.00003543239719
  C          -6.12839140149253      0.52212702491486      0.00008381947478
  C          -6.09917205965237      1.88865985265671      0.00004212703247
  C          -4.87354295031134      2.55823058199686     -0.00003833347123
  C          -3.70944965282438      1.83478286775718     -0.00007174003924
  C          -3.73883758197593      0.43125948502951     -0.00003421632686
  N          -2.51887154187504     -0.32646783891556     -0.00002996845244
  C          -1.34045064725976      0.32388710014607     -0.00002901399512
  C          -0.11672563488222     -0.30158738551489      0.00000789252887
  C           1.10988933687437      0.42916410097239     -0.00000476110722
  H           3.22307790364440      0.30257140117276     -0.00001009050612
  H           3.26311527479803     -2.17694498318658      0.00002633771381
  H           1.17795698195685     -3.47023683679646      0.00007496084318
  H          -1.32399663082916     -3.44731775772854      0.00011008360409
  H          -2.87478251443498     -4.38504812029017     -0.00012026095421
  H          -4.88427631903332     -5.64958640185394     -0.00010251288302
  H          -7.09017022775574     -4.63658120997030     -0.00002915157473
  H          -7.42114849724374     -1.94233287042998      0.00004668519018
  H          -7.07225982538193     -0.00159589598732      0.00014770012425
  H          -7.02586906320028      2.44951144879629      0.00007425307304
  H          -4.83087454992721      3.63973264823033     -0.00006861365831
  H          -2.79002944078636      2.39846552937099     -0.00012947340980
  H          -1.37934118222351      1.39701927527066     -0.00003831447738
  H           1.08181900258603      1.51244532890601     -0.00001290624068
32
BNPAH_02361
  C           4.61101791339958     -0.35031186619262      0.00003079058632
  C           4.74769005263283      1.02410777873521     -0.00001041069202
  B           3.52659157360304      1.89309741753770     -0.00002763046257
  C           2.18048268618945      1.17261035255055     -0.00001307981084
  C           2.17478625094257     -0.25320765938513      0.00001917035005
  C           3.36749859235137     -0.97936054387744      0.00004809714712
  C           0.89649469141263     -0.95358854218374     -0.00000186037540
  C           0.80845415155465     -2.33098617095212     -0.00003404795710
  N          -0.37983967128018     -2.95840898913890     -0.00003489467501
  C          -1.55432297947454     -2.31557741736061     -0.00000911823163
  C          -1.57046572210491     -0.93937283502051      0.00001105871902
  C          -2.80889511047178     -0.21302190136039      0.00002184396605
  C          -2.79607005683271      1.13088288853198      0.00001889293814
  C          -1.56860632419366      1.87814792126079      0.00000733200295
  C          -1.57400681353451      3.26206626005612      0.00000003550182
  C          -0.36358590962499      3.94513863997756     -0.00000377783836
  C           0.83994624557522      3.27414063758914     -0.00000864484670
  C           0.91395580098212      1.86993788365067     -0.00000584336840
  C          -0.32860206276700      1.17778656623409      0.00000805527509
  C          -0.33466629660866     -0.23377073348103      0.00000826915751
  H           5.49113595919396     -0.99056977989579      0.00005058164347
  H           5.76036285331862      1.41946666806722     -0.00002403792729
  H           3.62054327015851      3.09400721280854     -0.00005292624985
  H           3.35827332084296     -2.06220665831112      0.00009472221736
  H           1.67261100685165     -2.97539474011587     -0.00006626816444
  H          -0.38210024425911     -3.96586226422976     -0.00005760015782
  H          -2.44898733638318     -2.92180913207203     -0.00000603630034
  H          -3.74054272658710     -0.76616553672193      0.00002958528388
  H          -3.72796821515876      1.68511228425396      0.00002189819881
  H          -2.51510730392915      3.79908947290000     -0.00000453210900
  H          -0.36305810656859      5.02906476053356      0.00000111543527
  H           1.76379051076967      3.83321002561190     -0.00001073925608
32
BNPAH_02432
  C           4.59996718260247     -0.22102688974901     -0.00003527466723
  C           4.54681654321618      1.14576665964042      0.00001517714265
  N           3.35040588048578      1.74394894356829      0.00004784572208
  C           2.15502951603531      1.10494455806071      0.00003940659058
  C           2.15892207880089     -0.31012673028598     -0.00000696467089
  C           3.40710736448231     -0.93074863019124     -0.00004112303741
  C           0.90133112945434     -1.04983532138268      0.00001129390610
  C           0.87077771855493     -2.43529125549117      0.00001753265799
  B          -0.42674809176972     -3.19995569948671      0.00002110834334
  C          -1.65578365503247     -2.33879673494571      0.00000803615154
  C          -1.56683906086643     -0.95416019790118     -0.00000026165746
  C          -2.76484032131917     -0.14927837572766     -0.00001113818425
  C          -2.73945446636742      1.19304014395379     -0.00000558169038
  C          -1.48896683806634      1.89556426538225     -0.00000193038660
  C          -1.44552705081022      3.28076693196202     -0.00001259232714
  C          -0.24207065069015      3.97427838116980     -0.00000982502201
  C           0.94028662010188      3.27145983812557      0.00000283854493
  C           0.94599016033341      1.87060078867745      0.00000418579759
  C          -0.27404355843547      1.14091939402948      0.00001048947199
  C          -0.30630959063031     -0.27928294538867     -0.00000271435396
  H           5.55470211708075     -0.72645290703956     -0.00007520172898
  H           5.41351466037307      1.79084966628246      0.00003316751970
  H           3.32515369417202      2.75169539928847      0.00008711181728
  H           3.44768593044119     -2.01070937896202     -0.00008908788945
  H           1.82036041308636     -2.96303838716602      0.00003743404346
  H          -0.46029817458605     -4.40438984330189      0.00003697288229
  H          -2.66755768147420     -2.74113583001320      0.00000414080353
  H          -3.71277108361458     -0.67642026501538     -0.00001682634701
  H          -3.65612023234702      1.77191779900385     -0.00001592207059
  H          -2.38130533863521      3.82890539887671     -0.00001842911008
  H          -0.23293778378886      5.05653923008363     -0.00001892698119
  H           1.86033156921271      3.84770299394316     -0.00001494127042
36
BNPAH_02892
  C           2.55818533583444     -0.15969766017307     -0.00000020684960
  C           2.47756894201607     -1.58498032045903     -0.00001074228114
  C           1.26764195842525     -2.19096304918676     -0.00001429684799
  C           0.04792848249640     -1.44000937674377      0.00000077489145
  C          -1.17742716433670     -2.09454699815689     -0.00000732400841
  C          -2.39379296930373     -1.40265931318554     -0.00000763641879
  B          -2.38129895262428      0.12195557166729      0.00000266111128
  C          -3.75860820796669      0.80592737891318      0.00000506460348
  C          -4.89994884975242      0.07536496718765      0.00000382276469
  C          -4.89851503291047     -1.36158093403915      0.00001348187698
  C          -3.65926775419646     -2.04873205548838     -0.00000076793537
  N          -3.71229039210510     -3.42228452215126      0.00001356921072
  C          -4.80564938239223     -4.15614809352868      0.00002162222528
  C          -6.05259945244632     -3.54474235351597      0.00002134775624
  C          -7.23944494456672     -4.32622298519625      0.00000582566839
  C          -8.45372311695048     -3.72196066421172     -0.00001375207131
  C          -8.52341931440685     -2.30736160827411     -0.00001234100201
  C          -7.40062768852540     -1.53757870048533     -0.00000764162388
  C          -6.10356062646067     -2.12332499815743      0.00001360461915
  C          -1.03154060120003      0.77685030371739      0.00000826833661
  C           0.11991502596795      0.00255287180536      0.00000758803089
  C           1.43277117850191      0.59102101013338      0.00000644283436
  H           3.53129340728460      0.31780116371240     -0.00000937259060
  H           3.38709459439888     -2.17372600016907     -0.00001244158627
  H           1.20074258950270     -3.27476662197127     -0.00001519295373
  H          -1.11158189029022     -3.18551059513998     -0.00002044816784
  H          -3.87347732737338      1.88771341814272      0.00000329850388
  H          -5.86129655935130      0.57405384177684     -0.00001170288294
  H          -2.81726636903887     -3.89000136317292      0.00001086188633
  H          -4.68160065537465     -5.23113774860275      0.00002758343831
  H          -7.15389474357292     -5.40690125613677      0.00000804148923
  H          -9.36348651760857     -4.30818744563451     -0.00002765037216
  H          -9.49452018950165     -1.82702108990927     -0.00002416209839
  H          -7.50272454298352     -0.46293647029709      0.00000104316930
  H          -0.88638056131421      1.85591363631709      0.00001030182567
  H           1.49752229212569      1.67383606061369      0.00001047544820
36
BNPAH_03602
  C           2.00822319085885      0.59589974267174     -0.03303109390364
  C           2.16483571780486     -0.80075865316190     -0.01363772053757
  C           1.09791476512386     -1.65398323485700     -0.00033359231036
  C          -0.25323638385743     -1.20501178539897     -0.00297833060781
  C          -0.37206133079984      0.21885561026293     -0.02000022670244
  C          -1.63648484813947      0.79323282601793     -0.03249784894536
  N          -2.68593981313350      0.02183761845983     -0.00530910431524
  C          -2.68355115567192     -1.34371881215597      0.03328628507516
  C          -1.45505215517132     -2.02788830888030      0.01125442241028
  C          -1.55454715755892     -3.49155039585942      0.00763041976251
  C          -0.44454652271124     -4.36778386237598      0.01908662856696
  C          -0.55699484271812     -5.73112979158211      0.03548210217830
  C          -1.82345949737547     -6.31236729027550      0.05423638895298
  C          -2.92432746822905     -5.50610971263942      0.03362757019421
  C          -2.84717997028856     -4.09357664763640     -0.00808083637259
  C          -4.07174080464216     -3.32575888265612     -0.03700133673896
  C          -5.34820112417112     -3.93748494315604     -0.14362559207035
  C          -6.52493387769137     -3.24094116395033     -0.11172841461438
  B          -6.52818042825649     -1.73389080643326      0.06745324608065
  C          -5.16715475949222     -1.12991428051874      0.14183795971360
  C          -4.00877968120258     -1.91923548768850      0.06364599327273
  C           0.74544030193632      1.09043425538804     -0.03653270891131
  H           2.87021668295795      1.24961802406930     -0.04371445418283
  H           3.16188994704811     -1.22444298678336     -0.00888874713734
  H           0.55781859281961     -3.99977884864788      0.01151826365756
  H          -1.79703066813797      1.86258099021486     -0.07013767585770
  H          -3.61924163066708      0.42174074214811     -0.03066819365617
  H           1.34219028662455     -2.69332937948001      0.01759313508447
  H           0.33705741255187     -6.34181714523225      0.04324840479282
  H          -1.93891578724892     -7.38887620091313      0.09091520923393
  H          -3.89486691711280     -5.97393841766256      0.06882602539154
  H          -5.39495386487331     -5.01117762347839     -0.27437195760060
  H          -7.43242488828809     -3.83222435370258     -0.21345287253535
  H          -7.53440578392144     -1.07520974489571      0.14102312374778
  H          -5.09592316476936     -0.05096758634433      0.29628080311091
  H           0.56238662840387      2.15865753713353     -0.05095427422638
32
BNPAH_03717
  C           5.64004842824761     -1.93591999206724     -0.00004174110702
  B           4.37843636709940     -2.74573493757208     -0.00001885216819
  C           3.07183484498993     -1.93388323197781      0.00000917788225
  C           3.10099286850525     -0.48849799387177      0.00001201134501
  C           4.32825152558732      0.15347407248005      0.00001321772923
  C           5.54073270711517     -0.56110402825738     -0.00001729680249
  C           1.84092007832705      0.23086072270282      0.00002801229421
  C           1.78248407021102      1.63994469176573      0.00002243914468
  C           0.60181313482277      2.30075623494662      0.00002955842034
  C          -0.62217957014334      1.60088019014321      0.00001039332107
  C          -1.84353055228824      2.28008896878511     -0.00001018604657
  C          -3.02776769241016      1.59081721613552     -0.00002794592428
  C          -3.00112729491292      0.20906958907672     -0.00002418547460
  C          -1.80249286204007     -0.48728556502299     -0.00000064224237
  C          -1.78249316443662     -1.90890805890104      0.00000746861912
  C          -0.61243122654752     -2.58084390838438      0.00002390993002
  C           0.61780375231118     -1.89243886683019      0.00003360807755
  C           1.84439787439773     -2.56109765731430      0.00002793860070
  C           0.62688689170140     -0.47150349646462      0.00002171452994
  N          -0.59754398298977      0.21573781662399      0.00001171196346
  H           6.64012748827452     -2.35969652538773     -0.00006584799719
  H           4.32835455932212     -3.95019321556871     -0.00002178378936
  H           4.39235290352950      1.23369606296471      0.00001895159879
  H           6.44775360524404      0.04126146254487     -0.00002199692047
  H           2.70215964174848      2.20728035457619      0.00002098131628
  H           0.55565325189848      3.38062238693332      0.00002571264566
  H          -1.81227134173795      3.36023785288238     -0.00002210907373
  H          -3.97233779497834      2.11988878818883     -0.00004836709215
  H          -3.91296055990505     -0.37087696995437     -0.00004561137746
  H          -2.73745179449964     -2.41435227364967     -0.00000885460745
  H          -0.59847106631255     -3.66476618344666      0.00002609325763
  H           1.82053490986920     -3.64734350607911      0.00003251994740
32
BNPAH_03755
  C           5.52361091295459     -2.04959704512547     -0.00001171910524
  C           4.32516123237994     -2.68470820334987     -0.00001254429161
  C           3.10514061862064     -1.93543077114750     -0.00000620761231
  B           3.16319152973751     -0.41396568124486      0.00000424139142
  C           4.55868483349617      0.21334466828876      0.00000163409786
  C           5.63550543617567     -0.61712602024531     -0.00000804296791
  C           1.81950415990778      0.32017608158719      0.00001513177177
  C           1.72050154439836      1.72764631383415      0.00003088450213
  C           0.52250286312705      2.35844475313470      0.00002419138318
  C          -0.67957682099718      1.61627401054875      0.00000540669414
  C          -1.91789175019614      2.26192368924723     -0.00001963844471
  C          -3.08792541516667      1.54596125132181     -0.00003333557728
  C          -3.02840714696902      0.16725386090203     -0.00001349893967
  C          -1.81045602274496     -0.49740947773428      0.00000363778182
  C          -1.75541425002158     -1.91629178480239      0.00002761545729
  C          -0.56994180294263     -2.55900743875847      0.00002071366544
  C           0.65283074493535     -1.85187109651324      0.00000060174192
  C           1.86944966486205     -2.54990200146636     -0.00000936514863
  C           0.62667683614521     -0.42371475473208      0.00001003864306
  N          -0.62201127409405      0.22875312346701      0.00000748472790
  H           6.43815770366730     -2.63269347426968     -0.00002484414349
  H           4.29133075943307     -3.77211397723774     -0.00001914671445
  H           4.76223244718054      1.28227605583340     -0.00000876211825
  H           6.64315141145383     -0.20793696703253     -0.00001464916485
  H           2.63494878415731      2.30956660324259      0.00004794707016
  H           0.43676673646087      3.43631865779840      0.00002955162703
  H          -1.91340188133369      3.34262741673914     -0.00002853263993
  H          -4.04400080444499      2.05408746121228     -0.00005580259598
  H          -3.92520029021780     -0.43588778261102     -0.00001909484943
  H          -2.69706194584085     -2.44651274494814      0.00003852436880
  H          -0.53695364623537     -3.64279704595837      0.00002816746111
  H           1.79737283211169     -3.63752067998013     -0.00001258807131
32
BNPAH_03793
  C           5.53076530156140     -2.07363938858808     -0.00000045288063
  C           4.30586792130765     -2.64739593956916     -0.00000699104854
  C           3.09168279462568     -1.87942225273844      0.00000135217587
  C           3.13078107631744     -0.42950977151823      0.00001419885926
  C           4.34955348358936      0.22260062777906      0.00001834047926
  B           5.64477281324059     -0.54262940222155      0.00000998887028
  C           1.84677010054852      0.25690554801247      0.00001069515631
  C           1.77113381862179      1.66549033829353     -0.00000069236895
  C           0.58368717950271      2.31253317929462     -0.00001275103695
  C          -0.63368677677203      1.59851570875148     -0.00000572591297
  C          -1.86154081651451      2.26204881844910     -0.00000763948624
  C          -3.03938430114745      1.55802310949084      0.00000347882614
  C          -2.99739906137450      0.17884056877616      0.00000685038061
  C          -1.78859725371725     -0.50426595961174      0.00000737533545
  C          -1.75154342008882     -1.92303750807359      0.00000083187188
  C          -0.57178202720411     -2.58128239237453     -0.00000163966572
  C           0.64716873218104     -1.87821122823275      0.00000328419348
  C           1.88335999018094     -2.53060684391393     -0.00000042001393
  C           0.64074742329420     -0.45851136825082      0.00000675521841
  N          -0.59260704660945      0.21288134350260      0.00000322659534
  H           6.39230299138816     -2.73674271009261     -0.00001137450631
  H           4.18375021258961     -3.72923096404563     -0.00001886051743
  H           4.35270204079704      1.30772250378831      0.00002545297030
  H           6.71256697257271      0.01381787872307      0.00000213302258
  H           2.68663943894030      2.23918577316998     -0.00000769285090
  H           0.52528199924996      3.39178600172646     -0.00002737996837
  H          -1.84347362017679      3.34246347845943     -0.00001575081317
  H          -3.98968715682635      2.07678311455538      0.00000628625408
  H          -3.90221933165990     -0.41200211114707      0.00001391439737
  H          -2.69957190535942     -2.44120861873357      0.00000627585120
  H          -0.54671722543663     -3.66506392981166     -0.00001329660316
  H           1.87715565237812     -3.61666860384915     -0.00000977278456
32
BNPAH_04021
  C           5.59601591969264     -1.87870978091811     -0.00000202230700
  C           4.41819859980186     -2.58078050265410     -0.00002539463548
  C           3.16530448282443     -1.93605474944678     -0.00002307075011
  C           3.11988902225015     -0.52504378209633     -0.00001397209464
  C           4.34374798006332      0.17932496518162     -0.00001015316806
  C           5.54681950352778     -0.48077170978095      0.00000613090534
  C           1.84179343307194      0.18110981820553     -0.00000230424788
  C           1.79343642655496      1.57927065539098      0.00003518027060
  C           0.62131301317811      2.26581526475200      0.00001070867429
  C          -0.60486182470877      1.58545410563853      0.00000187415347
  C          -1.81676367991208      2.28785470483872     -0.00002544385312
  C          -3.01231640182014      1.62167621794640     -0.00003357004397
  C          -3.01169195184359      0.24036450112241     -0.00000870490211
  C          -1.82403281566515     -0.47895216240331      0.00001279995070
  C          -1.83900768060688     -1.89641160156647      0.00004214846285
  C          -0.67952534846499     -2.58935319613709      0.00002425282477
  C           0.57558472941157     -1.94468969489574     -0.00000264737193
  B           1.86079833583024     -2.72505986406308     -0.00001983620209
  C           0.61384470409304     -0.52969902193539     -0.00000143681058
  N          -0.60008749769237      0.19570768523416      0.00000537475251
  H           6.55011156139978     -2.39183976770844      0.00000580312191
  H           4.43319384098663     -3.66534872461706     -0.00004393940967
  H           4.36765129980821      1.26029098162586     -0.00001219698146
  H           6.46685199779925      0.09249934120206      0.00002301547472
  H           2.71213115913936      2.14745771687785      0.00006661852917
  H           0.59610035397278      3.34588085841395      0.00002621271297
  H          -1.76342626942785      3.36706790292410     -0.00003777375544
  H          -3.94693259652538      2.16882448415686     -0.00005193945780
  H          -3.93260833139847     -0.32466081016999      0.00000024654405
  H          -2.80594974820255     -2.37944459029077      0.00005346883077
  H          -0.69360860501256     -3.67357502034703      0.00003117074619
  H           1.84650638787471     -3.92803322448039     -0.00003159996294
32
BNPAH_04042
  C           5.49415630900549     -1.97084957807816     -0.00000313416701
  N           4.29618736228872     -2.56427018170260      0.00000038205618
  C           3.09376421623281     -1.89903480609197      0.00000605122658
  C           3.14693204007383     -0.46014222118498      0.00000905854734
  C           4.39687780968858      0.13445679166093      0.00000207852553
  C           5.57984778938097     -0.60608214911946      0.00000178151884
  C           1.89492044339545      0.25977901390693     -0.00000113972230
  C           1.82033913289415      1.68548899773841     -0.00000735671443
  C           0.62807370019755      2.37573884964102     -0.00000367734166
  C          -0.62788178297852      1.72066661780878     -0.00001230376675
  C          -1.89459290886325      2.33586200438629      0.00000885338138
  C          -3.05847347242947      1.57929767857281     -0.00000038865148
  C          -3.06753419565052      0.16881136146719     -0.00001356671074
  C          -1.88611516436858     -0.55783394138797     -0.00001862028512
  C          -1.76990639532091     -1.98749091055996     -0.00000357927596
  C          -0.56118153167753     -2.62095553861846      0.00000506454121
  C           0.70002344980978     -1.92079302527810      0.00000122225107
  C           1.91124292831240     -2.61389936993070      0.00000995201961
  C           0.70916797092885     -0.49277960679547     -0.00000867564143
  B          -0.60631130981759      0.22588191379397     -0.00002406116449
  H           6.35599378450422     -2.62371004724347     -0.00000799161476
  H           4.25482125003961     -3.57148376296567     -0.00000024180867
  H           4.46294444529636      1.21446404529581      0.00000799314699
  H           6.54676415425203     -0.12547500559448     -0.00000278112895
  H           2.73564288864087      2.26495700442974     -0.00001163378669
  H           0.67885362087835      3.46412419215914      0.00000145142881
  H          -1.98712605646027      3.42130005189556      0.00003538845682
  H          -4.01172461158827      2.09643771199207      0.00001491885273
  H          -4.03497632207369     -0.33271996412699     -0.00001435055681
  H          -2.66770281854680     -2.60477838550026      0.00000290092029
  H          -0.52800490878583     -3.70545539641760      0.00001619140646
  H           1.93346018274118     -3.69934234415232      0.00001021405740
32
BNPAH_04044
  C           5.51564485570335     -1.94094923797449     -0.00000018457212
  C           4.33682454223419     -2.59655253549635      0.00001060640293
  C           3.08581687849419     -1.90839541835268      0.00001158347378
  N           3.10373255406260     -0.52054573525382     -0.00000517991172
  C           4.32301436441312      0.13128282124702     -0.00003358936448
  C           5.49918567555335     -0.52189293620477     -0.00001857705901
  C           1.89861670999889      0.19667280002269      0.00000521956176
  C           1.86361546917750      1.62351502811501      0.00002009781803
  C           0.67874744312503      2.32956958927448      0.00002865065964
  C          -0.59119616750028      1.70700205016850      0.00001021455613
  C          -1.84482012300382      2.34522113369233      0.00000151872465
  C          -3.01985657324207      1.60494000388463     -0.00000743780522
  C          -3.05183430544814      0.19566627811162     -0.00001294107468
  C          -1.88322457013926     -0.55339016539012     -0.00000605419728
  C          -1.79144232105761     -1.98554945068792     -0.00000826574138
  C          -0.59356085279364     -2.63744093500884     -0.00000454114679
  C           0.67257384286770     -1.94811297667071      0.00000395450557
  C           1.89198931910171     -2.61153294365728      0.00002340714498
  C           0.70505558024798     -0.53045814755264     -0.00000588422409
  B          -0.59556248741141      0.21503977182543     -0.00000079047881
  H           6.45355955934974     -2.48041506159022      0.00000185415861
  H           4.29233318432315     -3.67748539039303      0.00001790056616
  H           4.27770599733518      1.20454851389599     -0.00006265468068
  H           6.41496312061438      0.05199880923621     -0.00004020199532
  H           2.77310432969468      2.20404386509209      0.00004290490265
  H           0.75725867236106      3.41601030574223      0.00004094618753
  H          -1.92020398253814      3.43160323176417      0.00000191526290
  H          -3.96500623443921      2.13640864225531     -0.00001333020527
  H          -4.02746673894593     -0.28902108360060     -0.00002590636791
  H          -2.69937867792209     -2.58699178129553     -0.00001634253170
  H          -0.57089397943641     -3.72163320359442     -0.00000226117102
  H           1.94918891522024     -3.69298984160428      0.00004236860219
32
BNPAH_04046
  C           5.51958689287857     -1.95478017610203      0.00000528463750
  C           4.35429137994975     -2.62981328802567      0.00000583792144
  C           3.09827931540996     -1.94761873618898     -0.00000494215287
  C           3.12995938738948     -0.49874932994128     -0.00000512553366
  C           4.36078951760236      0.11214578555717     -0.00002175969192
  N           5.50400904544784     -0.58546663946300     -0.00001656118804
  C           1.89234484482552      0.24345934955222      0.00000604826390
  C           1.82755308611978      1.67233329724394      0.00002429806268
  C           0.64188639610460      2.37065653413032      0.00002188459645
  C          -0.62077247843763      1.72375759093673      0.00000530694132
  C          -1.88061700468893      2.34634178294318     -0.00001319656442
  C          -3.05236500634592      1.59643136270457     -0.00001677272804
  C          -3.07110208836418      0.18929079743022     -0.00000770421142
  C          -1.89205009436846     -0.54685239610882     -0.00000122020701
  C          -1.78413897037807     -1.97475302015986      0.00000336779644
  C          -0.57722322469822     -2.61669475773908      0.00000315637328
  C           0.68605573550863     -1.92709448585760     -0.00000030922417
  C           1.89734077918730     -2.62937177493227     -0.00000576218808
  C           0.70193617814069     -0.49988625319677      0.00000801452136
  B          -0.60871017581189      0.22893212442500      0.00000677283574
  H           6.49259251718472     -2.42322947455069      0.00002025019914
  H           4.37054277402416     -3.71176089308169      0.00001447836437
  H           4.46971548455906      1.18715643967701     -0.00004462568095
  H           6.37674440608257     -0.08635756666194     -0.00003914571893
  H           2.74565044052211      2.24867268019272      0.00005103178636
  H           0.70016251373400      3.45873709032973      0.00003887636661
  H          -1.96676873052723      3.43241593873779     -0.00002003009185
  H          -4.00142293299749      2.12118639243092     -0.00002490892974
  H          -4.04147168326670     -0.30643864245167      0.00000167200288
  H          -2.68541415896266     -2.58704517963123      0.00000876865215
  H          -0.55150071086373     -3.70126416438532      0.00000186784732
  H           1.90259856504000     -3.71417238781363     -0.00000485305785
32
BNPAH_04058
  C           5.49394214879143     -2.01786403607674     -0.00000705956617
  C           4.27229256567408     -2.63735586083934     -0.00000367445150
  C           3.09702464867142     -1.87176345893698      0.00000277372881
  C           3.15023981093408     -0.46490166247573      0.00000287881993
  C           4.42493904233030      0.13146084798573      0.00000820464225
  C           5.57176568401232     -0.61946013486406      0.00000824398460
  C           1.90441421902665      0.27579564029359     -0.00001262897932
  C           1.82093856612599      1.69143022431378     -0.00000653264478
  C           0.61621583330696      2.37530074496941     -0.00000959661469
  C          -0.63743854497485      1.72260187902165     -0.00001584303976
  C          -1.90876625988827      2.32875530095973     -0.00000280353594
  C          -3.06785942900130      1.56247361974194      0.00000653713972
  C          -3.06715184313110      0.15264547309027      0.00000542625549
  C          -1.87971338640428     -0.56873254393977     -0.00001152348982
  C          -1.74833720319642     -1.99332810217737     -0.00000247006069
  C          -0.52891706484064     -2.61444710574082      0.00000096324979
  C           0.69877317626054     -1.87170060192645     -0.00000661021489
  N           1.88144124716336     -2.51900020193354      0.00000046686511
  C           0.70891576971570     -0.46840115173153     -0.00002348423703
  B          -0.61158059360116      0.22966572600857     -0.00002289284009
  H           6.39920749918760     -2.61213982148695     -0.00000792405054
  H           4.20272215902114     -3.71974585119057     -0.00000872593070
  H           4.49792265846855      1.21055160059036      0.00003334124427
  H           6.53842285640632     -0.13218930046523      0.00001497714299
  H           2.73283046063182      2.27416677457432     -0.00000336314737
  H           0.66434357007162      3.46380797367478     -0.00000120484072
  H          -2.01076613665015      3.41304545613735      0.00000147727634
  H          -4.02455806821942      2.07218199925904      0.00001716511560
  H          -4.03175432038436     -0.35384800345322      0.00001839917304
  H          -2.63590551983955     -2.62425458966784      0.00000506574942
  H          -0.47243782216975     -3.69793670307644      0.00001268136201
  H           1.88731427650137     -3.52664513063792      0.00001073589464
42
BNPAH_05647
  C          -5.41514346989299     -2.03591145807454      1.11555162441455
  B          -5.43038898935445     -0.53073631225615      1.30740419887561
  C          -4.18012713103900      0.16146102575490      0.87379282959858
  C          -3.09564866202641     -0.55470491907425      0.34180382121499
  C          -3.11934604814098     -1.97570999800469      0.24843765424417
  C          -4.29557837098514     -2.66202752493382      0.63616407069017
  C          -1.94843074463341     -2.68670733662988     -0.20630104121951
  C          -1.98826848972285     -4.05520117032078     -0.55665356879204
  C          -0.87996993456088     -4.72396137354156     -1.00183716111091
  C           0.33759075219995     -4.05063796579425     -1.15376590591069
  C           0.41466689229863     -2.72585807955825     -0.81673674333986
  C          -0.70133281932487     -2.02700404592450     -0.31007806047576
  C          -0.64764521783285     -0.60520208237941     -0.06267291850522
  C          -1.84777837717402      0.07605029164739     -0.02306123868585
  N          -1.80896456808801      1.46274532764582     -0.34727138281864
  C          -2.91982541215191      2.01215298838543     -0.93286335710368
  C          -2.95579679955301      3.30769618068774     -1.33273631482506
  C          -1.82109057974932      4.10788368753011     -1.16375701001522
  C          -0.69167742105250      3.54269681221453     -0.64781387907684
  C          -0.66506650618372      2.19781136423347     -0.24698767666952
  C           0.52403548125201      1.54455811073969      0.22488966196024
  C           1.64426805253975      2.28727956761868      0.64091464280841
  C           2.76932759831800      1.65823712650268      1.09877176790116
  C           2.79042921114558      0.26117860407981      1.17840015267986
  C           1.71101181270700     -0.47880963075994      0.77354068346847
  C           0.55294590727458      0.13871149958176      0.25505510738304
  H          -6.24668086256296     -2.68285254779840      1.38723489392970
  H          -6.35991382644962      0.06252807269673      1.79654289438276
  H          -3.74819465685392      1.33432325140654     -1.05984153778330
  H          -4.28644458805992     -3.74504510744810      0.57692973398864
  H          -2.92778730358827     -4.58578718499659     -0.50369903030382
  H          -0.95730891338958     -5.77088252746031     -1.27051100486958
  H           1.20111464111544     -4.55885415861535     -1.56419976734804
  H           1.72316193521592     -1.54957762711664      0.90695824526574
  H          -4.05056167622941      1.23053754050270      1.02471153220324
  H          -3.85804630075762      3.68599301569340     -1.79133579560679
  H          -1.82409189618282      5.14527185675996     -1.47206674303673
  H           0.21860078524761      4.11675779265077     -0.57476754597740
  H           1.61073767242438      3.36808488146847      0.63852970233580
  H           3.62129913950402      2.23827792699538      1.42912197141889
  H           3.65614310263224     -0.24118049740840      1.59221937353552
  H           1.33619758166534     -2.19358737670012     -1.00801487882508
42
BNPAH_05699
  C          -5.48344354615357     -2.20082771832780      0.97932596835680
  C          -5.59302231161358     -0.80065193953720      1.04336184772424
  C          -4.55119173417697      0.03357653804008      0.70376791645706
  B          -3.24011483542873     -0.58344755438050      0.25058228721669
  C          -3.16509726358617     -2.08902613997148      0.24118233492662
  C          -4.31010331357031     -2.81898642677152      0.60483776477156
  C          -1.93649493204523     -2.73842840825583     -0.16895915831353
  C          -1.88636409172644     -4.11110864575643     -0.49709773994219
  C          -0.74912434428810     -4.71564590367882     -0.96453624580680
  C           0.41110373242801     -3.96091966707581     -1.16005785456432
  C           0.40460160374846     -2.62962075544505     -0.83288182771958
  C          -0.73451919951355     -1.99215463185457     -0.29572008984643
  C          -0.71167817974485     -0.55708850438724     -0.03876344005363
  C          -1.90361124085593      0.15984010494000     -0.04070128963082
  C          -1.79262543119244      1.57261194318621     -0.28580739679357
  C          -2.91473908843036      2.27355471698212     -0.71354047902202
  N          -2.84710649500909      3.56181754245013     -1.04115743027814
  C          -1.69180170507699      4.27003075188297     -0.99941140178092
  C          -0.55002028095382      3.63910167912680     -0.62221984203657
  C          -0.56005435341259      2.27701371617291     -0.25903288214786
  C           0.60866570943807      1.55797831344328      0.15470363914408
  C           1.80556489472369      2.22359660170361      0.49103948138166
  C           2.88040024086685      1.53954779214990      0.98465709113761
  C           2.77547262992149      0.15681169739329      1.18726440268807
  C           1.63252025690483     -0.51368482315966      0.84471281904741
  C           0.52104205425198      0.15072476119542      0.27565229705647
  H          -6.33417612485885     -2.80899066705488      1.26689763006498
  H          -6.53070941270704     -0.38516317907369      1.40645032557885
  H          -3.87104949533916      1.78139200327690     -0.82243371323250
  H          -4.29190086395445     -3.90504826876297      0.63168017520353
  H          -2.79083662672168     -4.69838085923276     -0.41343081241196
  H          -0.76206502536674     -5.76968852928729     -1.21755831561089
  H           1.29731890781211     -4.41123641881344     -1.59026004030291
  H           1.55675556069121     -1.57101888359965      1.05064813319953
  H          -4.73089914473094      1.09441562680314      0.88167106404694
  H          -3.68805418121458      4.01772789288870     -1.35891228634406
  H          -1.74418129259746      5.30759828485398     -1.29281929901872
  H           0.36953715775111      4.20546273658228     -0.62660859191531
  H           1.86945475971281      3.29996761661573      0.39756881086317
  H           3.78744703172199      2.06595625666448      1.25342797419483
  H           3.59756599900797     -0.38485551060792      1.63937165688837
  H           1.28795497528909     -2.04275114131743     -1.04689148317573
38
BNPAH_05802
  C           6.47870886049502     -0.39202971980628     -0.00012726376932
  C           6.62146206049878      0.98140976919698     -0.00010110245885
  B           5.40413404343030      1.85435849883501     -0.00003320297957
  C           4.05323352528189      1.13830461324650     -0.00000301922580
  C           4.04275449886495     -0.28430965337420     -0.00002172736665
  C           5.23269383248771     -1.01580143999196     -0.00007990898920
  C           2.75854343550209     -0.97271646473240      0.00005379351063
  C           2.68488372476432     -2.34936560830156      0.00013006652878
  N           1.50688371181667     -2.98395355448679      0.00017321809344
  C           0.32921128726346     -2.34295009269416      0.00011270935309
  C           0.29297188299309     -0.97043155682902      0.00001225878606
  C           1.52261266091329     -0.25538844203502      0.00006696106257
  C           1.53350286552969      1.16245842429679      0.00005064055120
  C           2.78864534547870      1.83660606172692      0.00003721585004
  C           2.74883022636781      3.24411279324578      0.00004271180205
  C           1.56293982701412      3.92907655262515      0.00007501665971
  C           0.34041684529953      3.26127362622755      0.00009745401741
  C           0.30325389299546      1.88195278448943      0.00006856356147
  C          -0.96893932511278      1.15011620492144      0.00001767406420
  C          -2.20237683028630      1.82147696700310      0.00001265821449
  C          -3.39541654017436      1.14185255390058     -0.00006214534814
  C          -3.40178039666518     -0.25147213067818     -0.00016125100845
  C          -2.20857165804710     -0.92983755791959     -0.00016082474984
  C          -0.98087866785966     -0.25039055206698     -0.00002139631136
  H           7.35578700545842     -1.03650360034012     -0.00017994926431
  H           7.63542408062502      1.37325477338152     -0.00013108346964
  H           5.50844251347234      3.05383668095688     -0.00001341337716
  H           5.22315886613650     -2.09831540174591     -0.00014053617285
  H           3.55619044358140     -2.98370511698446      0.00019659920893
  H           1.50653076146777     -3.99109468248609      0.00024083440566
  H          -0.54542223975193     -2.97254230694443      0.00012623831627
  H           3.68440285682441      3.78181059029994      0.00001685660820
  H           1.57315758996188      5.01293263108155      0.00007786066087
  H          -0.56762785693035      3.84562643933895      0.00011686536844
  H          -2.22609125849554      2.90120444835283      0.00006211214599
  H          -4.32860812126763      1.69145926984982     -0.00006067039310
  H          -4.33692113984225     -0.79718170155294     -0.00024486232726
  H          -2.23977261009155     -2.01113710000664     -0.00024895155801
34
BNPAH_06594
  C           5.30239152682763     -0.34355561235578     -0.00004563864140
  C           4.09465935777206     -1.03060064255558     -0.00002586383364
  C           2.90762594312151     -0.31380562159021      0.00001771930733
  N           1.68051109033396     -0.95802997099452      0.00002791816675
  C           0.49634363766754     -0.30339186105675      0.00004072822433
  C           0.50406962006246      1.08562463296405      0.00006340064356
  B          -0.78850657261477      1.81159019736140      0.00004444415904
  C          -2.07439750335948      1.03089856595723      0.00000875519768
  C          -3.23309112271509      1.77212934236091     -0.00003128066954
  C          -3.20611127780881      3.20184754027407     -0.00004499930230
  C          -2.05250906787018      3.94818870927267     -0.00002070933908
  C          -0.77342275435186      3.31499933981478      0.00002282907913
  C           0.46817075161399      3.94181154639867      0.00002796552599
  C           1.69536731065546      3.22991486731032      0.00005006240128
  C           2.96232604203374      3.89696528505746      0.00003259451136
  C           4.13722329592106      3.22202968183254      0.00001064631602
  C           4.17247996263952      1.78749251002507      0.00000197418383
  C           5.35174061075616      1.03818577578155     -0.00003591751810
  C           2.93476855769380      1.10173233459833      0.00003087749516
  C           1.71329397003855      1.81401636311841      0.00006349599080
  C          -1.95894075664286     -0.40772600046550      0.00001169919478
  C          -0.75168905019890     -1.03719965585485      0.00002537296543
  H           6.22620818318668     -0.90960967007863     -0.00007219182354
  H           4.07935392304545     -2.11453732634450     -0.00002734239656
  H           1.68375434189949     -1.96534181776112      0.00000988703700
  H          -4.21185311227023      1.29329603820966     -0.00005111321107
  H          -4.15841944986161      3.71981961836533     -0.00008041567824
  H          -2.13670726447238      5.03321479030569     -0.00004070576522
  H           0.53754615302408      5.03033224748206     -0.00000031507870
  H           2.97018872565944      4.98210844865950      0.00003442108542
  H           5.07783139638689      3.75996338485642     -0.00000758378755
  H           6.30792386447591      1.54773427945013     -0.00005854751203
  H          -2.85450887849211     -1.02594429521020     -0.00000055790384
  H          -0.70786245415714     -2.12137302518862      0.00002239097591
34
BNPAH_06839
  C          -1.87876838243791     -4.02714912807115     -0.00011720227767
  C          -3.04751350197157     -3.33102407291499     -0.00001471207439
  C          -3.04650641641200     -1.92840097896078      0.00002491613922
  C          -4.26921468786821     -1.23497554287109      0.00008542076079
  C          -4.28366116860926      0.12155765935210      0.00008230942975
  C          -3.09586208701179      0.87121761757265      0.00003089164335
  B          -3.13867345203209      2.39479357873596      0.00001163241470
  C          -1.81502707540377      3.07131869439804     -0.00003068308729
  C          -0.64849050505282      2.32086668909330     -0.00004895788255
  C           0.63437457101135      2.98961596812634     -0.00007791346572
  C           1.80019280355326      2.32741899672467     -0.00006328583296
  C           1.82864386097997      0.89106148614489     -0.00002129023059
  C           3.02561920623323      0.18590270491807      0.00004914532758
  C           3.03285101978723     -1.19644829420245      0.00012333520542
  C           1.83803630400633     -1.89015549220410      0.00011038992058
  C           0.61532109895273     -1.21815444630158      0.00001305355756
  C          -0.64767290152413     -1.94581175799465     -0.00005751503519
  C          -0.68279022395301     -3.32274827332829     -0.00014554811701
  N          -1.84535389893779     -1.23338210534808     -0.00000714698135
  C          -1.86012249169221      0.18261058888439      0.00000175639815
  C          -0.64082787548409      0.89025599114780     -0.00003036243776
  C           0.59836592078514      0.18749099007553     -0.00001855077709
  H          -1.87389187948988     -5.10960398345510     -0.00016581863642
  H          -4.00888188633514     -3.82492744527888      0.00002018930145
  H          -5.17444900958923     -1.82599007215018      0.00012081260250
  H          -5.22538429853312      0.65871805831597      0.00012025573628
  H          -4.20440680699055      2.95392868170481      0.00003679727007
  H          -1.68402134262651      4.15042998819199     -0.00004806372428
  H           0.62161212478268      4.07354865180810     -0.00010057816785
  H           2.74403082846409      2.86105288836103     -0.00007738111542
  H           3.95941034717459      0.73704363623425      0.00004928603852
  H           3.96921110578699     -1.73969055337438      0.00019001375229
  H           1.88114649310190     -2.96922737347546      0.00019655540047
  H           0.24668520733560     -3.86544234985875     -0.00024175105515
34
BNPAH_06891
  C          -1.95210058659295     -4.05328338182895      0.00001342033560
  C          -3.16083404689446     -3.37803421073623      0.00001654025887
  C          -3.19059868723596     -1.97062543283557     -0.00000284261104
  C          -4.35177495799198     -1.15639074779866      0.00000050418969
  C          -4.30123516472986      0.22191910034452     -0.00001318182600
  C          -3.05960802557697      0.90696896633807     -0.00001328750713
  N          -2.99656923462158      2.27353111443423     -0.00000904279378
  C          -1.84579958848422      2.95794103139437     -0.00000165724466
  C          -0.61962711179445      2.31981306470403     -0.00000279772697
  C           0.62150396075451      3.04378133413700      0.00001072069260
  C           1.78106352896182      2.36547235988297      0.00001875846383
  C           1.82901699486675      0.92183923479042      0.00000553584047
  C           3.05935572478071      0.26652457853041      0.00000374277242
  C           3.10259124262091     -1.11297617273539     -0.00001326361775
  C           1.93341314082386     -1.85819590434941     -0.00001962929018
  C           0.67386190084047     -1.26276224799190     -0.00001451584603
  C          -0.57038523506374     -2.03475864921994     -0.00001325997893
  C          -0.69100507701374     -3.41430704261399      0.00000644994919
  B          -1.86328686968599     -1.27935270182522     -0.00001941815135
  C          -1.83779654457769      0.21892586034488     -0.00001831760645
  C          -0.61431414303105      0.90093929927681     -0.00000822909284
  C           0.62919342242318      0.17057750270126     -0.00000750038171
  H          -1.96601834811761     -5.13765080010445      0.00002072819235
  H          -4.08110777207159     -3.95982294611275      0.00002287265714
  H          -5.33805998419003     -1.61818890061367      0.00001069966588
  H          -5.22058411609637      0.79828522541076     -0.00000749086008
  H          -3.86205471091337      2.79138183912622     -0.00000890166060
  H          -1.93203844535980      4.03673390078963      0.00000305846399
  H           0.60666669881143      4.12765602902406      0.00002362630276
  H           2.72471457753856      2.89916573460000      0.00002940324021
  H           3.97411403114289      0.84776811456269      0.00001021248436
  H           4.05935703628836     -1.62217220476907     -0.00001313247244
  H           2.00357651108044     -2.93869486489425     -0.00003302815175
  H           0.18034887910952     -4.06630808196288      0.00002322331032
42
BNPAH_07008
  C           1.17843116483932     -1.97827890718353     -0.91499008873874
  C           0.13779199509883     -2.54738275084015     -0.22479196807198
  C          -1.01585396267371     -1.82071767044979      0.13335603685556
  B          -2.23514012285281     -2.52218542790388      0.76286428277092
  C          -3.46373067432426     -1.69956105543552      0.85605755617413
  C          -3.41387243147124     -0.33216741040633      0.53539149346439
  C          -4.61357908735384      0.46542445327002      0.42929869695299
  N          -5.79560387125091     -0.21867521556086      0.42873707058907
  C          -6.98120174033845      0.31190030741311      0.24086975195547
  C          -7.08977200750865      1.66417259169790     -0.07668439009640
  C          -8.35329077953661      2.22671095147721     -0.39097518265280
  C          -8.43655064105690      3.50529250987369     -0.84226334241581
  C          -7.25062915338302      4.24892731659473     -1.03288759290677
  C          -6.02796360724642      3.73933121854807     -0.70827606628829
  C          -5.89814619966980      2.43515467258957     -0.16140358309772
  C          -4.65232488674441      1.84653133019971      0.22387704680696
  C          -3.40068360043673      2.54385470654709      0.39406858021624
  C          -2.20357095836103      1.78164394588995      0.33960149775853
  C          -0.99767489481852      2.47062600795725      0.61287352031910
  C          -0.97018757737157      3.80791440959568      0.90584786636529
  C          -2.15774507188644      4.54240386054611      0.98125087186918
  C          -3.34763035803477      3.90674510156222      0.74623618752572
  C          -2.22825912421822      0.34433743267174      0.17667259035047
  C          -1.06434410872226     -0.44043892567866     -0.18694600038247
  C          -0.00831243647123      0.11178473506963     -0.94973503077311
  C           1.08425382366279     -0.63715169995151     -1.30530895422762
  H           2.04918930187669     -2.56453444359496     -1.18524227304771
  H           0.17871270296349     -3.59807221850008      0.04265464800441
  H          -2.18047811668294     -3.68203961908356      1.08535186557531
  H          -4.39444220629555     -2.12500048866590      1.23459996620297
  H          -5.69413573850401     -1.22018678670271      0.56288824005716
  H          -7.83699609813951     -0.34826010080314      0.29000412498694
  H          -9.24050462517315      1.61276842227814     -0.28813389626899
  H          -9.39516331549425      3.94063494269263     -1.09273856206924
  H          -7.31217773661289      5.24061568061741     -1.46447256782681
  H          -4.26736592397987      4.45177022315037      0.90654107757991
  H          -0.07855802664325      1.13048366818728     -1.30827575086517
  H          -0.02342445566174      4.28386649113892      1.13223069995597
  H          -2.14401964903761      5.58531075909260      1.27169108289716
  H          -5.14015722661916      4.31756125301123     -0.91209655610928
  H          -0.07731923495841      1.90832696216062      0.65792650142275
  H           1.86821866109313     -0.18946223307235     -1.90566845081771
42
BNPAH_07034
  C           1.21076581659435     -1.92419806652273      0.92048067010738
  C           0.16036925415465     -2.54307045795434      0.31639103541317
  C          -1.03749318439080     -1.84940917310738     -0.03066314381233
  C          -2.14449303045014     -2.54619746771940     -0.55478079644486
  B          -3.43667659649996     -1.87244549820615     -0.74527546672291
  C          -3.43833433385874     -0.35875410342909     -0.47751669273148
  C          -4.63898054611197      0.43735745578503     -0.44345508698624
  C          -5.87291062099713     -0.18216973933731     -0.64252672390110
  N          -7.01791058359010      0.45328562519874     -0.47273479996668
  C          -7.09739562029244      1.73601447523559      0.01523819361963
  C          -8.34680687301831      2.28281416264270      0.33514192309854
  C          -8.40947127979823      3.52376345830151      0.90621861717400
  C          -7.22368350391904      4.21809619781850      1.19192691244105
  C          -6.00598226101588      3.69280106810232      0.85424402477214
  C          -5.89687456031825      2.43941178005388      0.20659952795717
  C          -4.65523689450213      1.82368443086445     -0.18353256413546
  C          -3.40920540775756      2.51544940628814     -0.35546061398808
  C          -2.21349430185438      1.75164061423323     -0.37320238085947
  C          -1.02563448266342      2.42189467980001     -0.73982099271834
  C          -1.00420862239766      3.76201290809846     -1.02089654672896
  C          -2.18466972123218      4.51244795588677     -0.98490139355197
  C          -3.36271501570936      3.89095545423640     -0.67491028579376
  C          -2.23794509395275      0.30906117507768     -0.17097059483285
  C          -1.07235454793159     -0.43756895629782      0.19628505335499
  C           0.02060933972178      0.15790175424729      0.88262916087859
  C           1.12898476488328     -0.55206934317165      1.24096564608571
  H           2.09765785035897     -2.48938180366748      1.18433847440944
  H           0.20182151304622     -3.60653908160382      0.10687043705995
  H          -1.99040077262966     -3.60956822044551     -0.72398075847923
  H          -4.43579711649280     -2.46827052820233     -1.08203530381958
  H          -5.91531794351542     -1.21666528957630     -0.95613923189463
  H          -7.87826109194959     -0.04115915766950     -0.65176353829032
  H          -9.24761265577149      1.70892367588056      0.14794473494954
  H          -9.36812527736360      3.95294157195348      1.16747077380597
  H          -7.27136325098091      5.17280372444308      1.70005680224040
  H          -4.28407517551093      4.44993913454332     -0.75600979547807
  H          -0.04694322543072      1.19554004705567      1.18316719272660
  H          -0.07390276502080      4.23043774044668     -1.31919187351879
  H          -2.17685349900971      5.56110258443822     -1.25459925515571
  H          -5.10449231727461      4.22207709086002      1.12529911762396
  H          -0.12018776295657      1.84461804164116     -0.85268207433217
  H           1.93139439740969     -0.06953132622210      1.78578461642481
38
BNPAH_07754
  C          -6.42778184224136      0.29802624009000      0.00576238630445
  C          -6.46804421793687     -1.13079600135099     -0.01157725479263
  C          -5.32903173690006     -1.90553610058192     -0.02533253991867
  C          -5.28371362278092     -3.33900237810879     -0.04246230760413
  C          -4.08282436502897     -3.98277864103839     -0.05458231002961
  C          -2.81754235075176     -3.29906606332117     -0.05138636406896
  C          -2.70814681373057     -1.93271452414634     -0.03625788696689
  B          -4.00967531090871     -1.17419076076729     -0.02207328044112
  C          -3.99939889128429      0.32910807037826     -0.00373423001133
  C          -5.25762737233749      1.00799788676686      0.00989520087496
  C          -2.76973088620630      0.94323973235397     -0.00094812167684
  C          -1.51484735632553      0.25321743054177     -0.01492040415567
  C          -0.28455217995423      1.01540798667525     -0.01118829130218
  C          -0.23280904561919      2.42633134395153      0.00529972221845
  C           0.96475314313049      3.09637528079184      0.00820185128976
  C           2.18249012733802      2.42126050475490     -0.00507945998655
  C           2.17285406675157      1.04259828924891     -0.02166010186467
  N           3.35484435697668      0.32487761439796     -0.03552191655203
  C           3.38535243867272     -1.03638337902417     -0.05291049168217
  C           2.25676681399178     -1.76352171496682     -0.05696572184563
  C           0.97425256862452     -1.10568316160457     -0.04270532926810
  C          -0.21119311704342     -1.80440186226907     -0.04602167484784
  C          -1.45615960060349     -1.16649004701001     -0.03244470782734
  C           0.95118578726887      0.32053502053961     -0.02504029353944
  H          -7.37093612531998      0.83155757098600      0.01600091003131
  H          -7.45322536793587     -1.59701335798299     -0.01335688241246
  H          -6.20073324694520     -3.92431423638409     -0.04567862064900
  H          -4.06260161032814     -5.06638200064169     -0.06731978592838
  H          -1.93877587108262     -3.94120407669626     -0.06154332098418
  H          -5.29916218173029      2.09540502442799      0.02374560651077
  H           2.30983198236107     -2.84293526029770     -0.07102217332251
  H           3.11991734321215      2.96491918911547     -0.00263452485541
  H          -1.14017181648419      3.01064134210038      0.01559662364776
  H           0.96385145566923      4.17987849920785      0.02114091627182
  H           4.21730310889281      0.83760424754631     -0.03337323110497
  H           4.37024291881781     -1.48362530978082     -0.06311390429594
  H          -0.16626886654994     -2.88592684664317     -0.05989848856285
  H          -2.73677231567832      2.02907344874140      0.01284140334819
38
BNPAH_07756
  C          -6.42970030101709      0.28116536878376      0.00867521174542
  C          -6.46503860750722     -1.14310399765696     -0.00989839648686
  C          -5.31985101262960     -1.91460523064162     -0.02532624832598
  C          -5.26897895253885     -3.34539065979907     -0.04389148464816
  C          -4.06492775783065     -3.98740060433900     -0.05755615548318
  C          -2.80453763860291     -3.30022324373253     -0.05440504640745
  C          -2.70113706897773     -1.93247028482384     -0.03767906479607
  B          -4.00501883767556     -1.17842271703480     -0.02223418408652
  C          -4.00093130065858      0.32331909012131     -0.00276849863854
  C          -5.25807280280574      0.99551775090021      0.01244354008926
  C          -2.77024603941211      0.94444457059333     -0.00061954759807
  C          -1.51755873525563      0.26299858191669     -0.01581444682902
  C          -0.28638516566496      1.02545916399052     -0.01259606412377
  C          -0.23427000094357      2.43572267664880      0.00237039881440
  C           0.96117348927462      3.11159109386761      0.00531596619037
  C           2.18056577745736      2.43822879906410     -0.00641343425023
  C           2.19289043032309      1.05865441497860     -0.02180887365507
  C           3.42000421626459      0.29244971792292     -0.03454496266691
  C           3.37521109179974     -1.04476809304577     -0.04970355986494
  N           2.17852017753625     -1.71319550183246     -0.05360491793897
  C           0.96576591905776     -1.07252863001949     -0.04179600003182
  C          -0.20968856558991     -1.79184253177954     -0.04617526009753
  C          -1.45342583053141     -1.16021580136711     -0.03350729013788
  C           0.95879747015134      0.34945080164608     -0.02519452864754
  H          -7.37350039504126      0.81345448308352      0.02020952890345
  H          -7.44781944741546     -1.61433628245867     -0.01132039205688
  H          -6.18374078803755     -3.93450247234859     -0.04710563596465
  H          -4.04246818488203     -5.07094493078875     -0.07155105823556
  H          -1.92342508069878     -3.93992250532020     -0.06604246704719
  H          -5.30421492215334      2.08291926838040      0.02726100562050
  H           2.17839424846258     -2.71710128667246     -0.06509605284465
  H           3.11419089927455      2.98741825815264     -0.00375651320185
  H          -1.14432869519257      3.01670673095416      0.01121078048558
  H           0.95231784644751      4.19529325477772      0.01706705497052
  H           4.37302383709084      0.80245047403228     -0.03171936123247
  H           4.25930219959284     -1.66712450052292     -0.05924230512501
  H          -0.15584806591827     -2.87372567667752     -0.05954891542649
  H          -2.74312140575228      2.03067045104668      0.01409317902976
38
BNPAH_08342
  C           6.68937556582585      1.05884563437056      0.00001593022916
  C           5.54663199577071      1.77958785983955      0.00007446018257
  C           4.27175955426419      1.14482409226007      0.00003511218477
  N           4.23291578616521     -0.23100360342234     -0.00006252764353
  C           5.40964907564714     -0.96454869098072     -0.00012549156725
  C           6.61065631304241     -0.36161043390681     -0.00009379319318
  C           3.03928583520412     -0.87774040047121     -0.00008444569587
  C           1.82541574698586     -0.24097607702637      0.00000664684587
  C           0.58127982878684     -1.00744711876479      0.00004872131172
  C           0.57080430925494     -2.39477605620238      0.00011830843475
  B          -0.71251387731188     -3.18071210883760      0.00010732371056
  C          -1.95213300518713     -2.33793544082800      0.00002221056541
  C          -1.88341699743749     -0.95036493660871     -0.00001679259650
  C          -3.09499654669122     -0.16591463522207     -0.00006173344596
  C          -3.08826637430903      1.17590266662356     -0.00007652826570
  C          -1.84810065387485      1.89782378920084     -0.00003942353900
  C          -1.83250959604081      3.28535232376142     -0.00003273502577
  C          -0.64347642640107      3.99844223307340     -0.00000701385167
  C           0.55225865226814      3.31502856255518      0.00002758261219
  C           0.58903045662456      1.91675051671252      0.00002778378745
  C           1.83658714501781      1.19537162766911      0.00004365918301
  C           3.07117926613232      1.82981282132015      0.00007116304725
  C          -0.62101289449585      1.16944973946037     -0.00000517887291
  C          -0.63469434071171     -0.25621505399382     -0.00000906989568
  H           7.65371886845425      1.54875420746914      0.00004871557275
  H           5.55904430791450      2.86135853715570      0.00015922215841
  H           5.27644157260419     -2.03638765662581     -0.00019670479030
  H           7.50370946226230     -0.97030697918904     -0.00013444479881
  H           3.11267029401821     -1.95336268809654     -0.00017581448569
  H           1.52569708403860     -2.91464475816898      0.00021283304579
  H          -0.72552944258322     -4.38636518979634      0.00016411138927
  H          -2.95852336635919     -2.75388323966472      0.00000536945275
  H          -4.03446853451261     -0.70801045683942     -0.00007887898030
  H          -4.01328988612711      1.74168746760569     -0.00010711783834
  H          -2.77960844908370      3.81423525895919     -0.00005072276928
  H          -0.65294022525903      5.08098877878378     -0.00000504120573
  H           1.46994017838830      3.88801500762334      0.00004333875744
  H           3.13804931771543      2.90745240020206      0.00012896599035
42
BNPAH_08551
  C           5.99499444479597      2.01935999409933     -0.00009755117043
  C           6.11211230054162      0.58876962901603      0.00003803557854
  C           5.03074741060673     -0.23682712864595      0.00013528015413
  B           3.63284631315760      0.39303417011517      0.00009024263961
  C           2.29249626989485     -0.29369957634159      0.00013448765021
  C           1.11194694618273      0.43152647973958      0.00008548297978
  C           1.11688486252939      1.87203778606242     -0.00002560021589
  C           2.33774144093207      2.54982043619843     -0.00008715385845
  C           3.57318617325963      1.91402057076323     -0.00003955595276
  C           4.79393916675278      2.65679793790308     -0.00013310849154
  C          -0.13801932702312      2.60675135106797      0.00000875938347
  C          -0.17138941546167      4.02139793369737      0.00000424274867
  C          -1.34350013466704      4.72702873376476      0.00002012662794
  C          -2.57650438584093      4.06429957179461      0.00003790868026
  C          -2.58402511779101      2.69787552152442      0.00005791369780
  C          -1.38904483575031      1.94915016220887      0.00003126986863
  C          -1.42206068710357      0.50523834656364      0.00006352152836
  C          -2.60546843316050     -0.21745826494123      0.00005889623945
  C          -2.64741214191890     -1.60100743081701      0.00001279106747
  C          -3.85297874313743     -2.35716288169323     -0.00003681232992
  C          -3.83351729929469     -3.70883289699614     -0.00010486663474
  C          -2.58099680321612     -4.38090838158827     -0.00009968033301
  C          -1.44038241654311     -3.66910054887477     -0.00003161559200
  N          -1.45410255150495     -2.28335019198299      0.00000550165079
  C          -0.27994858985529     -1.60040850812869      0.00002220015022
  C          -0.19025263742418     -0.23211285713476      0.00004585660416
  H           6.90832240911506      2.60575116456863     -0.00017572576000
  H           7.12104268597154      0.18121753380148      0.00005685215526
  H           5.21859847965850     -1.30943124647708      0.00022541438826
  H           2.23726394215125     -1.37965889529150      0.00021487383185
  H           2.33469919214724      3.63493107140578     -0.00018837479552
  H           4.76653785144154      3.74551278598246     -0.00024024184344
  H           0.75422705727532      4.57541972242597      0.00000718978642
  H          -1.31189620386679      5.81026346955146      0.00002212265465
  H          -3.50470861943161      4.62103160877351      0.00004725469663
  H          -3.54078394096595      2.19332001366998      0.00008215584024
  H          -3.56147774403650      0.28355094725573      0.00006982650070
  H          -4.78264905273472     -1.80387605984973     -0.00002644178217
  H          -4.75406920816321     -4.27680018875474     -0.00015384820923
  H          -2.52543379861097     -5.46022122146817     -0.00012988581696
  H          -0.45614450802790     -4.11386956791681     -0.00000998442962
  H           0.59958964911664     -2.22338209505125      0.00000324011220
42
BNPAH_08667
  C           6.12532943870113      1.84610775457263     -0.00004300443226
  C           6.00606078057505      0.41650694428632     -0.00002628946187
  C           4.80356305850323     -0.21924755246700      0.00000432245565
  C           3.58476054283734      0.52539858769280      0.00001424852299
  C           2.34731443827691     -0.10924028826869      0.00003497504908
  C           1.12905709095415      0.56854327006410      0.00005665349868
  C           1.12621960090294      2.00982988047404      0.00000264422175
  C           2.30669173807488      2.73533539031069     -0.00001812399461
  B           3.64673401921462      2.04578229138597     -0.00001133160615
  C           5.04469380716471      2.67341148369424     -0.00004557632930
  C          -0.16488409826908      2.68919599481613      0.00002960149342
  C          -0.29676434069915      4.08170120583589      0.00008185020198
  C          -1.52568648695449      4.72073272944501      0.00005287541164
  C          -2.66220225330255      3.95786845057414     -0.00002149290248
  N          -2.53457821874941      2.62572765100066     -0.00004971770318
  C          -1.36522534382439      1.94996858091465     -0.00002816688570
  C          -1.38609834289743      0.50368172200148      0.00003237426404
  C          -2.57662534559848     -0.20460554010608     -0.00004141758176
  C          -2.61271981041810     -1.59710350342488     -0.00000982744167
  C          -3.82816793903872     -2.33696889302812     -0.00003264500973
  C          -3.80870454635235     -3.69464876226836     -0.00003584832803
  C          -2.56984644204955     -4.39030015252100      0.00000568870645
  C          -1.39287189482200     -3.71242251118951      0.00004349759279
  C          -1.37276073120080     -2.28717045374123      0.00003606517597
  C          -0.17970729577938     -1.56321109600618      0.00005682369579
  C          -0.12628407486569     -0.17421353690231      0.00001414573111
  H           7.13470271857015      2.25241866584296     -0.00006130819992
  H           6.91832463589779     -0.17155066713364     -0.00003067981464
  H           4.77470821494957     -1.30800341261703      0.00000538393941
  H           2.34244892747100     -1.19508255375006      0.00003451809765
  H           2.24531542501958      3.82005025358376     -0.00008028561033
  H           5.23344471116462      3.74566434695309     -0.00006699386894
  H           0.59852591176212      4.68584313158057      0.00015157640494
  H          -1.59719796134630      5.79880949461560      0.00009696491723
  H          -3.66794306866595      4.35146834497411     -0.00005491826629
  H          -3.37836460990029      2.07420429201910     -0.00009283050569
  H          -3.54324611750582      0.29156061322251     -0.00003170163026
  H          -4.77005498853164     -1.79864814734806     -0.00008145590125
  H          -4.73537678024476     -4.25502252085845     -0.00006018249092
  H          -2.57066140000046     -5.47358016752923      0.00000502737664
  H          -0.44895654954483     -4.24515660511817      0.00006770796894
  H           0.73744158052184     -2.13363671558246      0.00009885323879
42
BNPAH_08746
  C           5.99965930922812      1.91262618605301     -0.00012119756806
  C           6.01726591092024      0.49175470617220      0.00005169277840
  C           4.85072471436147     -0.20409404460436      0.00013132369514
  C           3.60090845588384      0.47682768881673      0.00005352279584
  C           2.37959937593177     -0.19403358772072      0.00010451007754
  C           1.16863840848046      0.48043998274499      0.00005562271265
  C           1.13047611572660      1.91168835206554     -0.00001951974282
  C           2.35469013971363      2.56684574903474     -0.00007927205939
  C           3.57899878373917      1.89671141946688     -0.00005271517077
  C           4.82317420859947      2.59225090048501     -0.00015853936798
  C          -0.12434502273290      2.65948912876254      0.00002395427112
  B          -0.17760792467639      4.18222438589509      0.00008989953148
  C          -1.54091557561788      4.80514251501474      0.00009748769867
  C          -2.66466973885165      4.00042110067214      0.00004757415270
  C          -2.58065088573806      2.61233578773410     -0.00000435759151
  C          -1.34870575129914      1.94496505407027     -0.00003166167286
  C          -1.32320229436013      0.48471072572981      0.00000658617109
  C          -2.48058109025311     -0.25342447074965     -0.00005016159479
  N          -2.51454736640449     -1.61252770082652     -0.00004830319820
  C          -3.73522099360469     -2.26691720873673     -0.00007083824747
  C          -3.81086664300963     -3.60987558400735     -0.00003260990896
  C          -2.62046256131579     -4.38493221585366     -0.00001305604354
  C          -1.42587470566742     -3.75102352346619      0.00000000307958
  C          -1.34411953799882     -2.33126069866564     -0.00002105004392
  C          -0.15063155876121     -1.62765877248667     -0.00001318926641
  C          -0.08703067774860     -0.24506624828164      0.00000857732396
  H           6.93810875747039      2.45432175359988     -0.00019301965038
  H           6.96611022423851     -0.03072611320448      0.00009856611038
  H           4.85518036869391     -1.28902033641842      0.00024727860504
  H           2.41334206977825     -1.27669486980924      0.00018746046481
  H           2.35639354556094      3.64746454795151     -0.00014105301204
  H           4.80987675583737      3.67605940150571     -0.00026710289966
  H           0.81000432214196      4.87242241413253      0.00014013006969
  H          -1.70382716950826      5.88026216370504      0.00015019783115
  H          -3.66026984111847      4.43985378898242      0.00005180811098
  H          -3.51417635157447      2.06453780520893     -0.00001667078874
  H          -3.45293631858792      0.21048492587575     -0.00008461431651
  H          -4.59948093359751     -1.61921170375489     -0.00009595552375
  H          -4.78390387862319     -4.08028323019315     -0.00004255849419
  H          -2.67562902355024     -5.46513842376010      0.00001481190023
  H          -0.49335565751403     -4.29944982463517      0.00001994174119
  H           0.75026903580791     -2.22250392650500     -0.00002150295969
42
BNPAH_08762
  C           5.91435242499271      1.97253460213612      0.00004104454056
  C           5.97954785989281      0.55302996340759      0.00000574224487
  C           4.82855660287567     -0.15660706201722     -0.00001423656404
  C           3.56270039233538      0.49168690303857     -0.00001808974451
  C           2.35166579886140     -0.18118520996329     -0.00003088538827
  C           1.12798245749946      0.46577869207692     -0.00001411474745
  C           1.12724001166331      1.89935713147208     -0.00000122497846
  C           2.34859169552159      2.52422415833001      0.00001038105499
  N           3.53589429599840      1.86539373017559      0.00000687338965
  C           4.71861730317644      2.58767993525940      0.00002436278476
  C          -0.10848785924706      2.68199124706211     -0.00002927490276
  C          -0.08085668833866      4.07709844330113     -0.00008611938900
  B          -1.33766667739058      4.89185081778773     -0.00005718831582
  C          -2.60581021742249      4.06942172755433      0.00003024194496
  C          -2.54202712101041      2.69819487593136      0.00007074415519
  C          -1.33547617191541      1.96352310223305      0.00004171131699
  C          -1.35283197438486      0.50800712559117      0.00002097265056
  C          -2.53515003689731     -0.22382912216185      0.00002051771017
  C          -2.57312134508299     -1.61897442143638      0.00000792856176
  C          -3.80016577237961     -2.34421975360059      0.00001053492632
  C          -3.80460875802408     -3.70282892387963     -0.00001124914849
  C          -2.58638829868353     -4.43388873822704     -0.00001959385729
  C          -1.39843117338956     -3.77524039469960     -0.00000931546442
  C          -1.35878015292158     -2.35291839957233      0.00001033367583
  C          -0.16612228170846     -1.63261586794235      0.00000885071213
  C          -0.13520178438394     -0.24799320062816      0.00001914904360
  H           6.81300927318128      2.57299922675436      0.00007002565097
  H           6.93892574928341      0.05351281304165      0.00001685524040
  H           4.82998710412529     -1.23843323609447     -0.00003705435347
  H           2.41073880229187     -1.25912830249576     -0.00003762495158
  H           2.43189186090863      3.59863411994998      0.00005905902921
  H           4.59535146292316      3.66065473368239      0.00003180710605
  H           0.88531448222757      4.57428849889813     -0.00016427298093
  H          -1.32573787792919      6.09832612450559     -0.00010527156232
  H          -3.60450267268090      4.50123019386729      0.00005347792515
  H          -3.47408368221389      2.14488235184920      0.00011430873859
  H          -3.48503589391404      0.29012566279191      0.00001566602784
  H          -4.73144996222853     -1.78932730234672      0.00002194792553
  H          -4.74507203132128     -4.24095293001163     -0.00001850950269
  H          -2.61294065101089     -5.51657636028218     -0.00003796491162
  H          -0.46272138579254     -4.32423479620749     -0.00002637913229
  H           0.75271189251340     -2.20547515913096      0.00000683353934
42
BNPAH_08946
  C           8.03368577005951      0.40319307552291      0.00005193095529
  C           6.89315418069431     -0.32427000553833      0.00002572541498
  C           5.60639895608926      0.31121459507099     -0.00000115046076
  C           4.42733755550734     -0.40552460495535     -0.00003607305504
  C           3.15746767676527      0.21052140648852     -0.00001934779662
  C           1.96082348459610     -0.52900851590602     -0.00001749541318
  B           0.65450538308628      0.16660247477635     -0.00002010866541
  C           0.68175893510703      1.69623623628752     -0.00002886195431
  C           1.89708202331848      2.34747211866028     -0.00002633087495
  C           3.12590068151279      1.65489920380808     -0.00002665250171
  C           4.33212328071056      2.37181967051378     -0.00001156791887
  C           5.56290156319182      1.74675762571878     -0.00000403353143
  C           6.79629667895905      2.47462264435033      0.00001307202560
  C           7.98720066447794      1.83259646669301      0.00003447160146
  C          -0.57157432925670      2.42351047686958     -0.00000785794597
  C          -0.66274044500468      3.81896931417622     -0.00005763676889
  C          -1.86807176956819      4.50207039042943     -0.00003514302924
  C          -3.02674240767256      3.77431189429255      0.00003080367909
  N          -2.94243404160365      2.43807779890712      0.00005210620533
  C          -1.80399345307504      1.70920914536998      0.00002704886324
  C          -1.92734479458866      0.25733497018641      0.00002981054150
  C          -3.18948644853578     -0.37164508666999      0.00007275501905
  C          -3.29623903127851     -1.73876296227699      0.00002793484002
  C          -2.13685689352282     -2.52024786799355     -0.00004005490673
  C          -0.90385803405016     -1.91551476430736     -0.00005905532028
  C          -0.75158138422696     -0.51779997315417     -0.00001776959970
  H           8.99606249474873     -0.09521904816284      0.00007724156990
  H           6.93096879181721     -1.40826945443159      0.00003296643594
  H           4.47128799353358     -1.49040001889289     -0.00004249553588
  H           2.08549166161492     -1.61057413380625     -0.00001124450761
  H           1.97500728414878      3.43269307769169     -0.00002604126089
  H           4.29235209866151      3.45772827985076     -0.00001188419581
  H           6.75385567576299      3.55878822100011     -0.00000040580345
  H           8.91319649398688      2.39507170064647      0.00004719820878
  H           0.25318018115388      4.39405114187324     -0.00010779304363
  H          -1.90539565549698      5.58196692571434     -0.00006217544917
  H          -4.01983462548357      4.19883076338772      0.00005961459119
  H          -3.80617661318217      1.91852857035841      0.00007545942385
  H          -4.12271872807034      0.18439318735923      0.00013754407298
  H          -4.27297996664131     -2.20618421727686      0.00005439003258
  H          -2.21653688679883     -3.60101663436435     -0.00007446048754
  H          -0.00963200144730     -2.52703408826730     -0.00010443345370
42
BNPAH_09553
  C           6.37607838038130     -2.83604837304694      0.00000577691087
  C           5.26260188285129     -3.60507950016773     -0.00001131194063
  C           3.94074646154168     -3.03858701282009     -0.00001568707581
  C           2.80171853734149     -3.83238946266699     -0.00001146454226
  B           1.44130971404838     -3.20061473301869     -0.00000837439174
  C           1.40256032394964     -1.67537953709760     -0.00001293706183
  C           2.60578162582847     -0.96401010973734     -0.00001562297899
  C           3.84369188210426     -1.59837820330637     -0.00001002642133
  C           5.05009639684940     -0.82753137234827     -0.00001026365805
  C           6.27075117601201     -1.41310666322121      0.00001337320375
  C           0.12190706842110     -1.05478470036351     -0.00000057837386
  C          -1.09830437018638     -1.75713951333779      0.00001349741905
  C          -1.07737497702299     -3.18913237460208      0.00001509302990
  C           0.07745519144782     -3.90427985471581      0.00000642582238
  C          -2.33022758513905     -1.01111261544164      0.00001556819035
  C          -3.59597918719759     -1.60039655555120     -0.00000775001398
  C          -4.76367202091027     -0.84761840428195      0.00000631282696
  C          -6.05269840337230     -1.46746145256301      0.00000453297529
  C          -7.18213607723581     -0.72027440708425     -0.00001221049075
  C          -7.11707740464202      0.70490658038227     -0.00001627491906
  C          -5.91913906950119      1.33387366954370     -0.00000519018374
  C          -4.70242010830236      0.58237999647200      0.00001207583114
  C          -3.45935808164678      1.18538111897531      0.00003581343570
  C          -2.29061081079050      0.41992262948791      0.00004568317912
  C          -1.03863623423364      1.04652226610438      0.00000723054026
  N           0.05304121262841      0.32586633064697     -0.00002646510915
  H           7.35701623578806     -3.29722792915030      0.00001676252309
  H           5.34501105930444     -4.68675285533899     -0.00001618549589
  H           2.96506946656979     -4.90892413757401      0.00000189089766
  H           2.65485638771400      0.12827004471882      0.00001637065911
  H           4.96543395853060      0.25510757824046     -0.00000918271890
  H           7.16997618700438     -0.80861270701446      0.00002732957164
  H          -2.03111412129427     -3.70324482961568      0.00002024613818
  H          -0.02195230561107     -4.98767194417129      0.00001162669028
  H          -3.69059482208480     -2.67703267793765     -0.00001116678186
  H          -6.10620357991468     -2.54983397984968      0.00000909673599
  H          -8.15107461490862     -1.20447419511275     -0.00001413215400
  H          -8.03575118309855      1.27815683826979     -0.00003518986404
  H          -5.86024088098243      2.41628711995976      0.00000107901399
  H          -3.38504903331176      2.26790891867251      0.00004261854202
  H          -0.92780361090836      2.12314768083183     -0.00000313974412
  H           0.94577333397891      0.79936932883158     -0.00007225021674
42
BNPAH_10474
  C           2.05351455452272     -1.21880350000989      0.00002618818260
  C           0.99214234565518     -2.07393046172488     -0.00033417724337
  B          -0.41085764733630     -1.48220860364431     -0.00031078904856
  C          -1.72360105437816     -2.24447345470038     -0.00053313961724
  C          -2.91429649224922     -1.58694305566038     -0.00037700438435
  C          -3.07700118167369     -0.15141182653551     -0.00012176954637
  C          -1.85859275280949      0.62220881409819      0.00002362029867
  C          -1.95738136142764      2.04227891520022      0.00006739013241
  C          -3.13221614280596      2.70102511051594     -0.00004021922719
  C          -4.34869068854109      1.98609182920268     -0.00010377163555
  C          -5.54274497901418      2.73927434888143     -0.00018491141989
  C          -6.77395844404819      2.17460723727223     -0.00020098911034
  C          -6.87402154866970      0.77058769549061     -0.00007629882896
  C          -8.14974844481447      0.10530100879896      0.00000803342096
  C          -9.38280955641080      0.79800884350117     -0.00017860927113
  C         -10.56829924148573      0.11899160205801     -0.00013736756317
  C         -10.61027370518699     -1.29070614817677      0.00017791199711
  C          -9.44495914739174     -1.99335842017089      0.00039766025967
  C          -8.20873355096675     -1.30511248972633      0.00027106635880
  C          -6.99654877317483     -1.99842599382641      0.00036546001575
  N          -5.86021494235858     -1.35159354438277      0.00021148418029
  C          -5.68163857366580      0.00982674897175      0.00000090835414
  C          -4.34626957536628      0.56436459554788     -0.00009359796079
  C          -0.55984119575597      0.02250958926122      0.00004935441658
  C           0.64543216461347      0.78703201786302      0.00042760071903
  C           1.87600796407629      0.19412416117525      0.00041418030453
  H           3.07522639330378     -1.59317855771301      0.00004216348189
  H           1.19980223591092     -3.14244268645681     -0.00060193594468
  H          -1.78135135367691     -3.33184734231236     -0.00076846136944
  H          -5.00334553535956     -1.88948524383477      0.00029195060458
  H          -1.04600672768626      2.62044872638103      0.00011565233793
  H          -3.16499981700975      3.78418955410755     -0.00005641498787
  H          -5.44750595679361      3.81907617558401     -0.00023133661325
  H          -7.65672439328013      2.79529531404139     -0.00025773232497
  H          -9.39838575421666      1.87772877235897     -0.00038643316019
  H         -11.49746594487619      0.67576630386950     -0.00033109803940
  H         -11.56322433820707     -1.80349154588099      0.00024197743539
  H          -9.44561271016218     -3.07704871617515      0.00065149990315
  H          -6.94209978948789     -3.07954086305132      0.00055929937558
  H          -3.73718732851195     -2.29182931578155     -0.00051803753470
  H           0.63994702994888      1.87241773190223      0.00077810202455
  H           2.75918696076852      0.82472667368124      0.00072159102779
42
BNPAH_11257
  C          -2.68393610968834      1.74469212133889      0.21574567582476
  C          -1.40031849366386      1.43260938474812      0.53949137223601
  C          -3.60545391441474      0.70655538360464     -0.05639489461939
  C          -0.89936081196712      0.11291962339211      0.42567782028408
  C          -3.16161447529056     -0.63511907422673     -0.05801353676870
  C          -1.73935626451999     -0.90649743460670     -0.07089096698910
  C          -4.97137475664743      1.00469975503721     -0.32132509373158
  C          -4.18992740234160     -1.64441299614654      0.02143465252566
  C           0.46486750753110     -0.15702866688481      0.80967182712472
  C          -1.13596133558541     -2.14860477668596     -0.49346139286248
  C          -5.88412767207085      0.02561169186898     -0.52586025102369
  C          -5.51473852932293     -1.32962885682617     -0.31634583830801
  B           0.24389576181859     -2.51465526036465      0.02726692665063
  C           1.01772286214005     -1.39067189654180      0.74156640089828
  C          -6.48121588484622     -2.36967515481362     -0.44539834198322
  C          -3.96426584224345     -2.98360764097427      0.50307461917193
  C          -6.18614767026869     -3.67278551014211     -0.21410619553949
  C          -4.90795318332813     -4.00752067272623      0.30038361505399
  C          -1.77567907829695     -3.05259573071218     -1.37564087621787
  C           0.71142864705629     -3.93670172110672     -0.25276942860671
  C          -1.26291416755139     -4.29921364446832     -1.64258515845508
  C          -0.05743541086516     -4.75079145891899     -1.04880716223983
  C          -4.54664311083056     -5.34424223661172      0.61530777165823
  C          -2.80635734396707     -3.31885961931064      1.21687237126049
  C          -3.33868973506314     -5.61545232986156      1.15538220911117
  N          -2.52188521169011     -4.57827633652511      1.49411173605657
  H          -2.11864147358596     -2.57933246745022      1.58875362577161
  H          -1.60995005657267     -4.76999497420729      1.88688310071345
  H          -5.23084564616345     -6.15307017993474      0.39767769130174
  H          -2.97224065674499     -6.60758495204169      1.36979307458950
  H          -3.03031712516191      2.77138188277770      0.21941054307773
  H          -0.71295252885701      2.21345379611426      0.84774997294963
  H          -2.69990383183359     -2.76610829931058     -1.87322604516763
  H          -1.78106541140558     -4.94673088299516     -2.34210377735200
  H           1.65582416939889     -4.34110675431384      0.10878563854254
  H           0.27091112914725     -5.76055022959219     -1.28944882095801
  H          -7.47825951573511     -2.09221734989593     -0.76981731665421
  H          -6.92067477250346     -4.45219260250784     -0.37304656018922
  H           1.01935825471094      0.69216751327016      1.20496615399954
  H           2.03020656610163     -1.50553809039565      1.12411745135398
  H          -5.26229439650999      2.04730596431308     -0.38532640458930
  H          -6.90913407836728      0.25971868463486     -0.78770618790070
42
BNPAH_11350
  C          -2.67919531295417      1.72724281321444      0.35465247140402
  C          -1.38601198122914      1.42154645126411      0.61976014356268
  C          -3.60215541695732      0.69103506638098      0.05296848045091
  C          -0.87813173879815      0.10468063549040      0.43240377629745
  C          -3.14462791914072     -0.64452045903115      0.00303933002357
  C          -1.73507485257796     -0.90921347760329     -0.04163001136570
  C          -4.96104016305033      0.98384398200145     -0.22385613466620
  C          -4.16374195227140     -1.65873633355912      0.02704497333818
  C           0.48285872416188     -0.19374291248571      0.69564200128019
  C          -1.17144487099054     -2.15217897250075     -0.55151112566186
  C          -5.85740635401621      0.00445951848338     -0.51789784237891
  C          -5.47102759273944     -1.34508036228478     -0.35960766777875
  C           0.15561192576837     -2.46081445108923     -0.12660209517877
  C           0.94165079158106     -1.45997707760085      0.49062895442693
  C          -6.37500570409631     -2.42072574055389     -0.61218811151845
  C          -3.92603703694019     -2.98374439095603      0.54074494146713
  C          -6.01518535311632     -3.68994510391130     -0.39007245334463
  N          -4.80993464484782     -3.97715225745533      0.24284448484445
  C          -1.85710729278260     -3.03560303605096     -1.39827024454198
  C           0.71546720207582     -3.73962779234637     -0.40406773319958
  B          -1.29916299812495     -4.37862676502157     -1.73975642591266
  C           0.05721139436960     -4.69995800991473     -1.11926377116505
  C          -4.55811952931137     -5.28000049291008      0.59842950742698
  C          -2.87326993036437     -3.30303623057828      1.42257131320630
  C          -3.49198875910677     -5.60714388610085      1.35862907538992
  C          -2.65510578090325     -4.58036562185505      1.83056906569723
  H          -2.22790934639232     -2.50270415494380      1.74640247609664
  H          -1.82521917791302     -4.80583332188080      2.48607154531489
  H          -5.28124451287584     -5.99903176146758      0.24379682198931
  H          -3.31562965251520     -6.64331295045949      1.60827954639064
  H          -3.03562620215392      2.74934432421195      0.40701677785474
  H          -0.69212711995559      2.19687590579528      0.92564276398859
  H          -2.80886626818695     -2.68885070531784     -1.79534852476032
  H          -1.88796372772515     -5.15969046730633     -2.45392876183041
  H           1.72517573433355     -3.91266002495876     -0.03272100487372
  H           0.58025674442645     -5.64299696792279     -1.26757152703632
  H          -7.35020300373582     -2.21523675277186     -1.03374384613848
  H          -6.62926302769136     -4.54605872507900     -0.62296075384652
  H           1.13077226117507      0.58381420104292      1.08207810642151
  H           1.96595038458300     -1.70908415366508      0.75132962377361
  H          -5.26516677684836      2.02450909271879     -0.24393658091583
  H          -6.87238016216192      0.23865036897901     -0.81376056453171
38
BNPAH_11473
  C          -2.58626208727323     -0.61227367517334     -0.04938540887773
  C          -2.69682302188088      0.81005171419314     -0.06275741828432
  C          -1.61352074475278      1.64407301349185     -0.05907404140880
  B          -0.22753698692668      1.01647694273893     -0.03983113421392
  C          -0.16786393543751     -0.49610763139180     -0.02666498743619
  C           1.08731102273970     -1.11754174745313     -0.00955611554976
  C           2.28742490641796     -0.43081183250383     -0.00404538604951
  C           2.35778960177449      0.97617029959873     -0.01484463290977
  C           3.61863752377789      1.66995225605913     -0.00845105229077
  C           4.85851764948463      0.98541015570863      0.00918209068900
  C           6.03278953496829      1.65046727496959      0.01464267800232
  C           6.07251308402377      3.06336214442567      0.00307652650781
  C           7.28520758142332      3.75134893286871      0.00844395765089
  C           7.31526574227950      5.12300313964848     -0.00254913262320
  C           6.12177732761539      5.81720389080332     -0.01909230530044
  C           4.90452865535962      5.15441769321194     -0.02483975151265
  C           3.67914239867723      5.87806110666617     -0.04193670803669
  C           2.49779749586140      5.23139201247211     -0.04748971080967
  C           2.44661936070804      3.81756178994219     -0.03661906861559
  C           1.24178696097403      3.11939259122296     -0.04224017952746
  C           1.14216931427234      1.74116491863050     -0.03236282894719
  C           3.65431561099930      3.07492559996848     -0.01953384750447
  N           4.87739971706546      3.76216965878431     -0.01370115527750
  C          -1.37639518533971     -1.24332397593102     -0.03206047727809
  H          -3.49786607529392     -1.20018263750044     -0.05319144977565
  H          -3.70353987428794      1.22288164981412     -0.07642041816653
  H          -1.81968964189064      2.71348433589429     -0.07048836430561
  H           1.14080627827640     -2.20636513182556      0.00003296349444
  H           3.19379711692591     -1.02080258813162      0.00872354162750
  H           4.86756774766752     -0.09453791260152      0.01864334585477
  H           6.97962445536662      1.12910531447618      0.02799931694975
  H           1.56478407924813      5.78276264911200     -0.06025267889297
  H          -1.34103112039324     -2.33159229334028     -0.02233865502020
  H           0.32756489589197      3.70536451664077     -0.05489175430955
  H           3.74580378261990      6.95659799804338     -0.05022053264396
  H           8.19174520207083      3.16307966111909      0.02107972471112
  H           8.25847736934142      5.65408815764649      0.00156623196451
  H           6.09964725764545      6.89767000770138     -0.02821018188392
38
BNPAH_11519
  C          -2.63286584030490     -0.39243140478560     -0.05085308538504
  C          -2.57377760741508      1.00091772511010     -0.06105859849950
  C          -1.35843810265336      1.64608399630369     -0.05501125341446
  C          -0.14945805206698      0.92791217201599     -0.03839173778591
  C          -0.20293883133340     -0.47911908318475     -0.02799210138750
  B           1.10768147830389     -1.29436472141890     -0.00966808057260
  C           2.38921952362247     -0.53010086389204     -0.00380484649827
  C           2.39930841982924      0.85317042664519     -0.01422917282324
  C           3.64105223746310      1.61823534911631     -0.00813316532753
  C           4.89836916207314      0.97464872914156      0.01032310657639
  C           6.05536021986408      1.67267277831882      0.01587998545987
  C           6.05672117640559      3.08630592510918      0.00352543065452
  C           7.24474925119557      3.81191814748598      0.00875530984070
  C           7.22785310792872      5.18804161039310     -0.00313828356536
  C           6.01922915385312      5.84509618116882     -0.02034252396880
  C           4.81659780441985      5.14181982289744     -0.02602843385182
  C           3.57537629537250      5.81907255122453     -0.04381331267740
  C           2.41192614319829      5.12451079965430     -0.04894369953778
  C           2.41204786186301      3.72218068526875     -0.03712025817853
  C           1.22223904181156      2.97744082767782     -0.04199074048774
  C           1.15599143097907      1.61158899819082     -0.03167924287486
  C           3.63809506606012      3.01891477690507     -0.01966341040719
  N           4.83757997120201      3.74816626692099     -0.01403907949998
  C          -1.45864289813205     -1.10870162298263     -0.03468421497293
  H          -3.59113139684980     -0.89856602674818     -0.05563024501743
  H          -3.48773984745155      1.58369150530610     -0.07347378852242
  H          -1.36735556373186      2.72787784869433     -0.06347191195907
  H           1.06628856547836     -2.49798038305150     -0.00055995618927
  H           3.33816703610002     -1.05262475448394      0.00872459970566
  H           4.93930083980996     -0.10429618997805      0.02047523360122
  H           7.01561633170613      1.17683774820454      0.03006842341463
  H           1.46161235686881      5.64621403157209     -0.06229882165507
  H          -1.48682117408741     -2.19311055770131     -0.02650086469384
  H           0.31126205312923      3.56068145897428     -0.05473202253731
  H           3.60025394510130      6.89903235431307     -0.05287638422054
  H           8.17015413833749      3.25431752287169      0.02205671377810
  H           8.15464651996107      5.74787369009740      0.00084027205499
  H           5.96274818208869      6.92417367864493     -0.03017983857470
38
BNPAH_11533
  C          -2.58321938775509     -0.40860036320885     -0.05030628845471
  C          -2.54029602825489      0.99928343231764     -0.06055409550847
  C          -1.33198662413090      1.63615752711037     -0.05456486912615
  C          -0.10213040601404      0.93282389461707     -0.03809735450922
  C          -0.14315514652105     -0.49265614833926     -0.02743127060824
  C           1.03404994866966     -1.27290951813417     -0.01048464867600
  B           2.36966199023922     -0.66420570501229     -0.00222338727614
  C           2.40795612306090      0.87955744413330     -0.01411167900963
  C           3.62093199599935      1.62214032378700     -0.00839826973656
  C           4.89766494983077      0.97090595962525      0.00983171857828
  C           6.07008434009400      1.64855455411594      0.01571956266743
  C           6.07340049138323      3.07129919319237      0.00371169885573
  C           7.23530139937939      3.81858168269385      0.00872929510480
  N           7.17588312446550      5.15580196845130     -0.00315177039959
  C           6.01917374314160      5.85201152261351     -0.02029386293511
  C           4.81355526891546      5.18786747354570     -0.02643568463779
  C           3.55633006686952      5.87811437813135     -0.04445149440518
  C           2.40515889215785      5.17323571840703     -0.04950835284689
  C           2.38719855928471      3.74205138206734     -0.03769220219047
  C           1.21486755470969      3.02166178306219     -0.04273175570892
  C           1.17166553748604      1.61636276295640     -0.03167387242395
  C           3.62409626303425      3.03743922326757     -0.02005504804470
  C           4.82567040611531      3.75996661175725     -0.01434516840945
  C          -1.42271386719223     -1.12057025203203     -0.03444221826594
  H          -3.53846813753117     -0.92160932645947     -0.05499945110641
  H          -3.45807405863654      1.57456790967164     -0.07278142867359
  H          -1.34191687237748      2.71780895398076     -0.06290276124639
  H           0.87428203656026     -2.34919533310356     -0.00346880451721
  H           3.37264010272207     -1.33227657025765      0.01329695786570
  H           4.90160403674729     -0.10943069024575      0.01904893427842
  H           7.01488195359406      1.11807344280097      0.02946191589799
  H           1.45370655753170      5.69375863148857     -0.06289590902777
  H          -1.44831654665698     -2.20484263690093     -0.02638257734150
  H           0.29455141111060      3.58968804115524     -0.05562877873796
  H           3.55076882079530      6.96110029904289     -0.05368160582252
  H           8.22078508345607      3.37435737492975      0.02222483179293
  H           8.04081681935399      5.67220059162434      0.00080242466431
  H           6.10387259836252      6.92902646314737     -0.02879373005914
38
BNPAH_11565
  C          -2.62490567573891     -0.44853667703541     -0.05007360429869
  C          -2.61604721087281      0.94527365845225     -0.06134542445478
  C          -1.41989991981962      1.62779916431893     -0.05597568639910
  C          -0.18660277729357      0.95980483856842     -0.03913753887469
  C          -0.20101942993831     -0.45184383308965     -0.02786021929433
  C           1.02726190817592     -1.23060513438555     -0.01055440786601
  C           2.26184494026815     -0.69384589698279     -0.00344463714342
  B           2.39426648298580      0.84006183017646     -0.01431667498972
  C           3.70850108512915      1.61835810482504     -0.00776894560297
  C           4.97143905480974      0.98760014160965      0.01025590513666
  C           6.12365402731831      1.69738803682992      0.01582569459192
  C           6.09862990569702      3.11182092965466      0.00360929682783
  C           7.28100625780262      3.84984786022205      0.00882584906145
  C           7.25733578032002      5.22440029582038     -0.00288802199071
  C           6.04304009021065      5.87320990224572     -0.02002233646715
  C           4.84872159810065      5.15965016878098     -0.02564116428011
  C           3.60072942845422      5.82830130103569     -0.04334402626802
  C           2.44442316777535      5.12790994207952     -0.04849170600552
  C           2.43761744598183      3.71977131813943     -0.03690455300150
  C           1.21433638681219      3.01865613857425     -0.04264814843487
  C           1.10547209168491      1.64946974501950     -0.03276426777835
  C           3.67812685022264      3.02358538412321     -0.01939360088494
  N           4.87323281398982      3.76786327333927     -0.01385143714899
  C          -1.42870888615749     -1.12822086356454     -0.03364795468445
  H          -3.56287337309868     -0.99057207063411     -0.05414627770321
  H          -3.55002612803480      1.49486332983157     -0.07414673573793
  H          -1.44433496993662      2.71043471550073     -0.06510874673308
  H           0.89093395662041     -2.31045656705416     -0.00308560588644
  H           3.10000873149743     -1.38696274439823      0.00978366092323
  H           5.01103161080841     -0.09538625360589      0.01991843394319
  H           7.09451923552116      1.22171735112295      0.02970377491710
  H           1.49328912072313      5.64859196299852     -0.06182685517178
  H          -1.42280845434167     -2.21314597310471     -0.02476051139435
  H           0.33078284763022      3.65262064240802     -0.05552359579951
  H           3.61801095970749      6.90867528458079     -0.05229154300808
  H           8.21038204245101      3.29856409816077      0.02206794286573
  H           8.18094371597953      5.78955115470866      0.00111862155493
  H           5.97796628855466      6.95188544072764     -0.02980495251933
38
BNPAH_11841
  C          -2.55471483600363     -0.62251090392400     -0.04960589746892
  C          -2.60458258858867      0.78044750056139     -0.06277197383533
  C          -1.45193207095559      1.52045882365280     -0.05755648669026
  C          -0.18016397717349      0.90434170818059     -0.03880567872018
  C          -0.14453668718943     -0.50494246433526     -0.02589396837174
  C           1.12353213723767     -1.14874254469955     -0.00692674869539
  C           2.27300912081402     -0.44031811025418     -0.00188387679787
  C           2.27659045175260      0.99419768655102     -0.01502553060287
  C           3.54783082352305      1.70156810952280     -0.00928809744482
  C           4.76836484598681      1.00967278826707      0.00679943630241
  C           5.96558677911955      1.64810660977257      0.01226709253126
  C           6.03251859262873      3.05074474096048      0.00204710523458
  C           7.26323776681204      3.71459613682745      0.00775993995819
  C           7.32142332630454      5.08369910443378     -0.00220458226564
  C           6.14513569538672      5.80530618891786     -0.01802654626912
  C           4.91041881068456      5.16838492744087     -0.02416775950552
  C           3.70912436557012      5.92018016309958     -0.04062783379696
  C           2.51306182993169      5.29225259131441     -0.04698659557765
  C           2.41086940018150      3.88402853552620     -0.03730789183711
  B           1.07385033984859      3.19565599270916     -0.04531303808050
  C           1.05013166098866      1.67144741346823     -0.03305822064417
  C           3.59563044385558      3.11925765487940     -0.02024074077868
  N           4.84694146843340      3.77395818187675     -0.01398613293706
  C          -1.34034115260109     -1.25079214687345     -0.03146495370796
  H          -3.47168603280892     -1.19942699499028     -0.05369791916708
  H          -3.56433523235898      1.28350490269188     -0.07720776793959
  H          -1.51138046366164      2.59932397307484     -0.06796290041400
  H           1.15660894912443     -2.23304842993307      0.00350280151645
  H           3.19841719476825     -0.99677122451945      0.01257119002588
  H           4.77901668657881     -0.06952931764772      0.01511063382491
  H           6.89785248732964      1.10212946664016      0.02436523102881
  H           1.59486359997753      5.86878303253484     -0.05951577417110
  H          -1.27969560866795     -2.33381308781753     -0.02097220726145
  H           0.09025650326943      3.88335444595433     -0.06117741489965
  H           3.80142340574291      6.99714528573277     -0.04804025962181
  H           8.15594450896115      3.10579245708038      0.01978661186268
  H           8.27661814770358      5.59391046416220      0.00222111497127
  H           6.14539030749380      6.88574933916062     -0.02637435975400
38
BNPAH_11890
  C          -2.56281585382450     -0.48051164417490     -0.04962770466333
  N          -2.52107650004651      0.87852007365453     -0.06070186365004
  C          -1.36900059140125      1.56289849389441     -0.05538290331633
  C          -0.14437118390211      0.93271291532064     -0.03818665935383
  C          -0.15173215993579     -0.50191358337572     -0.02649725193159
  C           1.06102195754574     -1.19027539849855     -0.00971519205222
  C           2.24103024043506     -0.48623613096168     -0.00468009661361
  C           2.32444754365835      0.91610745069054     -0.01502973632084
  C           3.58264810762510      1.60319030881852     -0.00856257586384
  C           4.85615986536755      0.93057316321592      0.00924222497084
  C           6.05782097731723      1.58928755353200      0.01536726560115
  C           6.15416949270645      3.01116546065940      0.00475717392381
  C           7.33005681459777      3.77106754033761      0.00978898474616
  C           7.28561148996136      5.16583202202912     -0.00219207142681
  C           6.09089410792351      5.90219643760900     -0.01974330977632
  C           4.85231484518128      5.26558715433036     -0.02626624619692
  C           3.56957118994419      5.90322296766815     -0.04409475154559
  C           2.40369342382767      5.19268038497723     -0.04909809203629
  C           2.35458416319731      3.75034487794718     -0.03749377872303
  C           1.14143247037135      3.06352910458475     -0.04304667630640
  C           1.10572196529388      1.67523782503588     -0.03233430632991
  C           3.56680153417807      3.00958964232767     -0.02013134696679
  B           4.86347453744779      3.76569218095480     -0.01379629857209
  C          -1.40241057293266     -1.17335485417787     -0.03281675266386
  H          -3.54240462963218     -0.93505571315613     -0.05521027240625
  H          -3.38558084101752      1.39373971339935     -0.07309248369388
  H          -1.46938767874544      2.63795397838674     -0.06570875776431
  H           1.06361902067320     -2.27271710028564     -0.00095096207349
  H           3.16377874358417     -1.05066820553358      0.00779688016934
  H           4.88551898043095     -0.15172917890404      0.01841129074213
  H           6.96286511944273      0.98220330785531      0.02849833707954
  H           1.45680662975328      5.72399026349635     -0.06250176555056
  H          -1.42883359768999     -2.25475822353245     -0.02401461865572
  H           0.22716311994422      3.64654996804939     -0.05560630301130
  H           3.50307861619849      6.99096459239253     -0.05417715084722
  H           8.30762881401262      3.28957810780055      0.02325451228795
  H           8.22343353458575      5.71119234527266      0.00220508166840
  H           6.16254530392286      6.98971219835996     -0.02832282287695
38
BNPAH_11892
  C          -2.55517798178286     -0.44816163476840     -0.04947646373845
  C          -2.50535641324531      0.96130552848346     -0.06210268391614
  C          -1.30965333218429      1.58845634229417     -0.05641273642042
  N          -0.11163822115321      0.91119686776316     -0.03815857819878
  C          -0.13519261377369     -0.46188781630286     -0.02638694060000
  C           1.06452894487200     -1.17715447970927     -0.00920817453567
  C           2.25571809078199     -0.51409971107780     -0.00420256345478
  C           2.32965815546822      0.88458812126826     -0.01493217483702
  C           3.58262817357583      1.58436313965627     -0.00869059550434
  C           4.85536194817452      0.91853736232295      0.00883514908873
  C           6.05420457096045      1.58830723941270      0.01481336748569
  C           6.14035477412206      3.00767224975665      0.00434994372801
  C           7.31260659576739      3.77901643259817      0.00933647231249
  C           7.25541154350513      5.17030646938610     -0.00246364052697
  C           6.05194265652034      5.89843078280117     -0.01981612597237
  C           4.82084500110413      5.25283880040138     -0.02622210093104
  C           3.53037286851571      5.87780282837366     -0.04374534152177
  C           2.37164470148880      5.15672452736538     -0.04853427473677
  C           2.33795884488384      3.71339310398264     -0.03711602348168
  C           1.12470444782445      3.02321625652677     -0.04250740983203
  C           1.11406589904406      1.63617601947590     -0.03205606417190
  C           3.55684007189840      2.98808189842011     -0.02017047329968
  B           4.84582857515760      3.75354470565490     -0.01396123550471
  C          -1.38511273352397     -1.12986283590306     -0.03228111555367
  H          -3.50394808367001     -0.96827636007434     -0.05368272117204
  H          -3.40586315391621      1.55852641557210     -0.07614936214389
  H          -1.24746435600123      2.65966494411226     -0.06656600392790
  H           1.01307010860457     -2.25648888805153     -0.00038318073402
  H           3.17263486760835     -1.08597472608946      0.00836275159967
  H           4.89296031885838     -0.16337808930105      0.01785825087946
  H           6.96284259882420      0.98687939047195      0.02773264728999
  H           1.42001626974085      5.67879063605797     -0.06175445718063
  H          -1.35962859951758     -2.21112875174032     -0.02230856528777
  H           0.22296531718678      3.61556989060932     -0.05415208021611
  H           3.45260774967709      6.96454433443875     -0.05376442653071
  H           8.29384355743271      3.30565062541058      0.02265240180380
  H           8.18775675625606      5.72466420412405      0.00184364401844
  H           6.11594008091446      6.98626417627728     -0.02823911427503
38
BNPAH_11894
  C          -2.55302616448131     -0.55544680503907     -0.04918584283872
  C          -2.60215230400638      0.84075445305935     -0.06168919262090
  C          -1.44226884462474      1.57705862717102     -0.05664012579221
  C          -0.17930316144929      0.96291157244004     -0.03886395416763
  C          -0.16248601583872     -0.43549211739968     -0.02702843428247
  N           1.06118837001459     -1.08294442986699     -0.01003562877646
  C           2.22153741872273     -0.42954582917817     -0.00484193165775
  C           2.30745082221534      0.94136313164199     -0.01525046080511
  C           3.58585672310432      1.61266695885594     -0.00853895085767
  C           4.84505637114800      0.92773432989804      0.00897564599029
  C           6.05556600825646      1.57901855700093      0.01512099212861
  C           6.15992737109089      2.99650504726832      0.00476017507570
  C           7.34127722427982      3.74982549995435      0.00975631070975
  C           7.30737717783720      5.14535420910804     -0.00203976769410
  C           6.11765186424230      5.88779330650713     -0.01936582356088
  C           4.87305643546949      5.25770260252859     -0.02584606925893
  C           3.59836236398207      5.89829368050441     -0.04342325533817
  C           2.42197546053402      5.19213512178100     -0.04851271173414
  C           2.36455702742821      3.76007342155936     -0.03721497313399
  C           1.13110668510148      3.07940479963931     -0.04310679290645
  C           1.07973431007905      1.70651418119661     -0.03275317670097
  C           3.57438962268193      3.01500234999767     -0.01994626037916
  B           4.87497960270237      3.75941456733853     -0.01355311225471
  C          -1.33745549351371     -1.19159644176691     -0.03192208263321
  H          -3.46760901420888     -1.13456035114118     -0.05299600133180
  H          -3.55896126777042      1.34690326135673     -0.07549540797834
  H          -1.50710605441072      2.65596191901973     -0.06674493025555
  H           1.06536488940839     -2.08877892289627     -0.00185551765065
  H           3.10441446428143     -1.05259772934904      0.00789300774235
  H           4.86734280496400     -0.15556456296695      0.01792316080771
  H           6.95549649313956      0.96471288140362      0.02802942881257
  H           1.48065262071495      5.73149218297050     -0.06172687895002
  H          -1.27867456684179     -2.27452188707156     -0.02201998024395
  H           0.22005495442304      3.66377872878238     -0.05569295639748
  H           3.53544091577489      6.98608355736141     -0.05336181633551
  H           8.31554498157186      3.26211806563210      0.02304498522139
  H           8.24850790017265      5.68399421075481      0.00233717617159
  H           6.19545100380488      6.97457785194388     -0.02784984612304
38
BNPAH_11895
  C          -2.53540448275801     -0.57727678425519     -0.04903078079324
  C          -2.58225602026220      0.83054110398024     -0.06255407990235
  C          -1.43884694921125      1.58078506641093     -0.05784575122317
  C          -0.16650429408681      0.96941375588030     -0.03918477895707
  C          -0.13317204936045     -0.44501669507329     -0.02628821714194
  C           1.11336186065060     -1.08793584452402     -0.00820631109281
  N           2.21611595548439     -0.38152009124117     -0.00406957160176
  C           2.28725799044196      0.98953068043442     -0.01560808164401
  C           3.55461517485261      1.62004722323547     -0.00918535805266
  C           4.80688385688688      0.91491380024278      0.00774946107117
  C           6.02176084063558      1.55505607754788      0.01385767403274
  C           6.13554676984487      2.97118096676693      0.00415973879245
  C           7.32983488584946      3.71412862169507      0.00931034589848
  C           7.30493278340226      5.10210921128486     -0.00175766738866
  C           6.11695933958578      5.86380361896587     -0.01858193239800
  C           4.87299619876521      5.25363262233129     -0.02527938586027
  C           3.59353146225224      5.91538757674574     -0.04261652443713
  C           2.42027962062506      5.22809337879000     -0.04810936991274
  C           2.34068799078290      3.77918495379433     -0.03747452969893
  C           1.12320462163906      3.11628515655329     -0.04382964538113
  C           1.06794492179639      1.71745884958102     -0.03322997884089
  C           3.54953909529844      3.02410409647829     -0.02034124860687
  B           4.86012807244764      3.75266464723944     -0.01366706672380
  C          -1.32656876740982     -1.20444786660293     -0.03121212604027
  H          -3.45345414390367     -1.15036509548000     -0.05283820283180
  H          -3.54385523054924      1.32913635376629     -0.07701562581817
  H          -1.51457379204984      2.65845731696596     -0.06882503823448
  H           1.21171658879521     -2.16524698719723      0.00283866332895
  H           3.10486373402001     -0.86299287384079      0.00897006778356
  H           4.82999081637652     -0.17257215785344      0.01574252241247
  H           6.91747585515877      0.93493440599424      0.02611386007952
  H           1.48232564544669      5.77406226649630     -0.06105010427762
  H          -1.26189726621743     -2.28644879846124     -0.02057533348354
  H           0.20779931637255      3.69342293253851     -0.05655653326426
  H           3.54728614912555      7.00360769306745     -0.05182070017092
  H           8.29851506477739      3.21596732258408      0.02209399466704
  H           8.25008110601993      5.63462743478610      0.00269712122570
  H           6.21117727847476      6.94938706037222     -0.02643950551357
38
BNPAH_11896
  C          -2.54628782294686     -0.51486403750152     -0.05243938785151
  C          -2.56357566919109      0.88097606758644     -0.06672811489070
  C          -1.38829546687588      1.59447360889829     -0.06038379104930
  C          -0.14606656169900      0.94164953069686     -0.03908438898661
  C          -0.13957228215973     -0.45872271012444     -0.02501755121889
  C           1.12989116706593     -1.12442614185067     -0.00236401699812
  C           2.26495562324507     -0.42757185692935      0.00246369783282
  N           2.30454132663723      0.96681569533076     -0.01387215968011
  C           3.53857578740578      1.62334110807168     -0.00979957789205
  C           4.78467172444433      0.92001392160420      0.00398689770103
  C           5.99932800865461      1.57185292319571      0.00948532570684
  C           6.12484450002749      2.98208407853543      0.00234493736136
  C           7.31554320249860      3.72626507107341      0.00714693940716
  C           7.28658608602825      5.11758450507160     -0.00267284540133
  C           6.09751237673122      5.86935877445059     -0.01796589777682
  C           4.85103225230539      5.25183250534472     -0.02418920111146
  C           3.57724965476676      5.90556858270453     -0.04023438691162
  C           2.40137692600226      5.20882820235007     -0.04547656706813
  C           2.34774986210701      3.77189400571409     -0.03565175328026
  C           1.14615066507156      3.06303221525196     -0.04212053400910
  C           1.11771220911769      1.68539362261907     -0.03170466616549
  C           3.54227302941872      3.02174684407573     -0.01982243029639
  B           4.84898533413274      3.75339860501003     -0.01361886616521
  C          -1.34287072775643     -1.17500905067669     -0.03190821711179
  H          -3.47540607734104     -1.07099095420293     -0.05745860093192
  H          -3.50804255122166      1.41031622734722     -0.08293280944189
  H          -1.44349912523906      2.67297408680824     -0.07243536457647
  H           1.17669129115728     -2.20504819316276      0.01173461261670
  H           3.21970134389256     -0.91685177293580      0.02107923370420
  H           4.82103117782440     -0.15753272206952      0.00822059643660
  H           6.88925575410237      0.94358148634797      0.01903007562500
  H           1.45927547033169      5.74599174179007     -0.05772316411572
  H          -1.30750100304537     -2.25816757002689     -0.02049752070093
  H           0.21282562538481      3.60441471733397     -0.05507446208686
  H           3.52419581791886      6.99337150958136     -0.04893953280036
  H           8.28585496959779      3.23181093235011      0.01859918697822
  H           8.22919027817633      5.65344684685682      0.00145440693836
  H           6.18439782342935      6.95526559347961     -0.02509310178925
38
BNPAH_11908
  C          -2.57397724384575     -0.39400883106951     -0.04991437130046
  C          -2.53450010896271      1.00801451032187     -0.06068354690678
  C          -1.33350163818387      1.66508305037588     -0.05510005933483
  C          -0.11354597094717      0.95618276580385     -0.03831609550404
  C          -0.15675064973330     -0.45274678451150     -0.02748452473558
  C           1.06162103300385     -1.19424877319037     -0.01061707320707
  C           2.25658344737244     -0.56651749921001     -0.00446901264878
  C           2.35857046354601      0.85757130602621     -0.01450461654397
  C           3.62119042723191      1.55480953323269     -0.00774117435229
  C           4.89084908504903      0.91241073533497      0.01001967986385
  C           6.08580241793511      1.60760077940948      0.01600523768573
  C           6.15654123076877      3.02253346877651      0.00524056387038
  C           7.31802707871798      3.81426699355844      0.00996211217050
  C           7.23834226092353      5.20398133161549     -0.00251461429592
  C           6.02276981707503      5.91333533258237     -0.02042823139028
  C           4.79991620889979      5.24964547201181     -0.02665349237919
  C           3.50211914766838      5.84996809692901     -0.04486359793245
  C           2.35244268783752      5.10623770221937     -0.04962613479989
  C           2.38238130305943      3.67273812556159     -0.03704234568292
  N           1.23074994057224      2.96733675788152     -0.04206621039735
  C           1.17611976846247      1.59891888068475     -0.03148227946752
  C           3.58777990231576      2.96279995643893     -0.01951376734706
  B           4.85498003292505      3.75282769061792     -0.01352358015222
  C          -1.40581875533624     -1.10507564388498     -0.03375094307526
  H          -3.52699148488908     -0.90815964561785     -0.05441044445788
  H          -3.45708435842896      1.57476979748932     -0.07320734248590
  H          -1.35596625117486      2.74835237394146     -0.06398305044734
  H           1.00902910981699     -2.27644738149089     -0.00269108335850
  H           3.16611389871213     -1.15038324038136      0.00799250272913
  H           4.93762927134156     -0.16838187901461      0.01929841896689
  H           7.00176160652970      1.01765198564415      0.02922291941341
  H           1.38687725727817      5.60114823130118     -0.06356713783584
  H          -1.42364703829455     -2.18888470560803     -0.02526923923574
  H           0.36425833115934      3.47802306875625     -0.05403041072318
  H           3.40040593469754      6.93407196834370     -0.05565549228572
  H           8.30668782914159      3.35764161201099      0.02356243770128
  H           8.16086304810689      5.77340213700846      0.00156317646094
  H           6.07165095964827      7.00163072010092     -0.02942017657810
38
BNPAH_11949
  B           2.10287955112387      1.29612588127007      0.00028597467508
  C           0.85151199810472      2.15525916124076      0.00047630540140
  C          -0.39344870528474      1.59876554988939      0.00032320557557
  C          -0.68028347573141      0.18945960589852      0.00002214338809
  C           0.50617077229397     -0.66031444146962     -0.00014700153956
  C           0.35207742313055     -2.08817099806566     -0.00037369616883
  C          -0.84943870036032     -2.66891358881037     -0.00033030662317
  C          -2.03686097390812     -1.86987072139127     -0.00013516260392
  C          -3.22701796385356     -2.55629697112949     -0.00001051056891
  C          -4.47010720334260     -1.94880664163697      0.00011712379364
  C          -4.50263930836769     -0.53835933338195      0.00001373837566
  C          -3.29824217744744      0.22127095048753     -0.00009110697101
  C          -3.49521725856650      1.62826720101668     -0.00029411960956
  C          -4.70937536570364      2.21350351905527     -0.00036340514678
  C          -5.89173384091187      1.45313927927442     -0.00020996155597
  N          -5.77275593848563      0.07591382510369     -0.00000316443309
  C          -6.94105955630693     -0.68723976810446      0.00017521129796
  C          -6.85905710329163     -2.10441695482825      0.00036222153830
  C          -5.65982788470126     -2.71137146947384      0.00030550158438
  C          -8.17944683610867     -0.06214997058510      0.00015143869753
  C          -8.29164281015450      1.31222918878659     -0.00006104666448
  C          -7.14404771801625      2.06382751071298     -0.00025967605997
  C          -1.98181330791963     -0.42458316020257     -0.00005727616824
  C           1.80084517020011     -0.17106688898514     -0.00006163513248
  H           3.21824651346680      1.75024266060450      0.00043501540993
  H           0.87410751498363      3.24330935852601      0.00074386673655
  H          -2.65633385362886      2.28740071172688     -0.00042866674696
  H           1.25657233573155     -2.68570206100416     -0.00053317967325
  H          -0.96070853834156     -3.74697382200387     -0.00044247618063
  H          -3.19180225981697     -3.64047675654234     -0.00000989790575
  H          -1.18678496182888      2.31785587900197      0.00049873695573
  H          -4.80603202539969      3.28989218112523     -0.00054595310266
  H          -7.78857920819786     -2.65516085098369      0.00051137564518
  H          -5.58126683333266     -3.79207674077656      0.00041335410927
  H          -9.05394809424879     -0.69709173498767      0.00030342807889
  H          -9.26466215514037      1.78627916656362     -0.00008759975953
  H          -7.16907273058537      3.14419237182983     -0.00045023764912
  H           2.57640550994825     -0.93462012775100     -0.00024156099929
38
BNPAH_12019
  C           2.08941015813580      1.22447454692124      0.00005803965426
  C           1.01844538740532      2.14848955555781      0.00015973785239
  C          -0.30192671910735      1.77732745038193      0.00013370797520
  B          -0.67830144660610      0.29146086320952      0.00001366881780
  C           0.53060625505760     -0.63831445223576     -0.00006008514797
  C           0.36263023462081     -2.03812293613793     -0.00012788850991
  C          -0.86539962897331     -2.63244356998865     -0.00009253742225
  C          -2.06693475428387     -1.88216877225215     -0.00002247827378
  C          -3.26945022016521     -2.61468652318926      0.00003517709659
  C          -4.49475597183614     -2.00888590527133      0.00005627913057
  C          -4.55931528008346     -0.58480565900953      0.00001269454259
  C          -3.35919642518405      0.17690477626495     -0.00000430209557
  C          -3.51487211306917      1.60608498492661     -0.00007870689751
  C          -4.71400633181278      2.22067637324619     -0.00011462121458
  C          -5.92655486898829      1.46914924286099     -0.00008394822332
  C          -5.81094800120166      0.05018412395249     -0.00001501069104
  N          -6.97264539537585     -0.69442421586942      0.00002222087235
  C          -6.90547262665349     -2.09518037856502      0.00008689353952
  C          -5.72878150813411     -2.72850141968751      0.00010792848255
  C          -8.18951918124941     -0.09940432176913      0.00001652859157
  C          -8.32265831109556      1.25849019725473     -0.00002789033098
  C          -7.18010385875231      2.05100400383443     -0.00008722396127
  C          -2.07970504182879     -0.43624291065599     -0.00000885702620
  C           1.84821997942206     -0.11948656759282     -0.00005691696205
  H           3.10836899043275      1.59545766751715      0.00007001664877
  H           1.27516351758884      3.20577907469432      0.00025581979767
  H          -2.62156654482248      2.20270642966478     -0.00010147623791
  H           1.24581697236237     -2.67602774898962     -0.00017837867948
  H          -0.94668717081123     -3.71388287419277     -0.00012430854142
  H          -3.21505970310875     -3.69876406843372      0.00005277466284
  H          -0.97501677226310      2.62896350532646      0.00021912120077
  H          -4.78100298659963      3.30180131050412     -0.00017343272512
  H          -7.86282970453511     -2.59357243660346      0.00012418817228
  H          -5.71878886333438     -3.81113887612997      0.00015912058947
  H          -9.03538923103428     -0.77135719211225      0.00005516760926
  H          -9.31251349337608      1.69160873396911     -0.00001930225848
  H          -7.26305059373891      3.13111826938716     -0.00012500159763
  H           2.68939925299934     -0.81099628078768     -0.00013971844000
38
BNPAH_12023
  C           2.09325791264333      1.22642960293502     -0.00008506797942
  C           1.02272535759202      2.15250784267518     -0.00003207422574
  C          -0.29733459203187      1.78276925442535      0.00003224716083
  B          -0.67610077923630      0.29638794888434      0.00004075198143
  C           0.53267703775924     -0.63522785800252      0.00000802406599
  C           0.36222661654633     -2.03417867415229      0.00002210516298
  C          -0.86815010467154     -2.62488911417825      0.00004318886053
  C          -2.06793959165530     -1.87153847537214      0.00004431627354
  C          -3.27242530478748     -2.60395593994287      0.00003113310096
  C          -4.50424550993406     -2.00727274812025      0.00002459835940
  C          -4.56231317691322     -0.58109568912981      0.00003185401084
  C          -3.35880711682183      0.18161811552232      0.00006074295287
  C          -3.51710265190784      1.60811933586185      0.00007373428682
  C          -4.71758429919300      2.22871438998000      0.00005308261998
  C          -5.91763470708452      1.46397160107365      0.00002613284821
  C          -5.81695731274307      0.04116286980516      0.00001097633457
  C          -7.01929566875898     -0.73394221028883     -0.00001640559506
  C          -6.93282592618321     -2.16733868218733     -0.00003737697351
  C          -5.72422272619592     -2.76153405652352     -0.00001523930649
  C          -8.22599693256148     -0.07743197613102     -0.00003846999967
  N          -8.26765533879909      1.27292082971945     -0.00004539344160
  C          -7.16924648922200      2.04086653901849     -0.00002102172019
  C          -2.07665682107895     -0.42802681499745      0.00005567368054
  C           1.85118501535626     -0.11694639630582     -0.00005561388328
  H           3.11260022347416      1.59657437791093     -0.00014662215692
  H           1.28126749759327      3.20945368271199     -0.00003604671192
  H          -2.62396999104333      2.20579562741935      0.00008680945041
  H           1.24385111520818     -2.67429152122575      0.00000623021824
  H          -0.95204950235095     -3.70620260615359      0.00005567082860
  H          -3.21219706560131     -3.68818028644684      0.00001153709533
  H          -0.97103484365750      2.63421404605204      0.00007688069863
  H          -4.77872499551146      3.31059894929437      0.00005844797097
  H          -7.84630636767892     -2.74939965792727     -0.00006393861882
  H          -5.65087640191993     -3.84348301469907     -0.00003641972397
  H          -9.17749677829340     -0.58946157365693     -0.00005448908739
  H          -9.16820824527127      1.72357774431520     -0.00006239936407
  H          -7.32271845804034      3.11108928213325     -0.00002695133025
  H           2.69189892297528     -0.80910374429641     -0.00008460784337
38
BNPAH_12041
  C           2.03847416910480      1.30169356803093     -0.00000362291805
  C           0.86976575873352      2.11207731898957      0.00000238959963
  C          -0.39851212361405      1.60870004159036     -0.00000586628834
  C          -0.70643968474543      0.20257230669240      0.00000179547350
  B           0.54726836345370     -0.69326392444349      0.00000400542770
  C           0.37880677978645     -2.21204754358671      0.00000120344980
  C          -0.86604426060363     -2.71445704800475     -0.00000241245924
  C          -2.03666504576349     -1.87634529627927      0.00000428071172
  C          -3.23522695179879     -2.55601232296562     -0.00000074679977
  C          -4.47990680481441     -1.95199411403099     -0.00000189454742
  C          -4.51876383276250     -0.54122497180380      0.00000169119408
  C          -3.31605407562818      0.21305331757203      0.00001244466085
  C          -3.49787231377408      1.61896318646446      0.00001143885761
  C          -4.71109117315752      2.21134720245570      0.00001141403418
  C          -5.89494553464622      1.45483098754890      0.00000394505951
  N          -5.78419087425511      0.07711150307380     -0.00000310685798
  C          -6.95384377119216     -0.68429375393434     -0.00001006250474
  C          -6.87022981735088     -2.10422895598444      0.00001041570337
  C          -5.67222198038300     -2.71294351544529      0.00000823282216
  C          -8.18838258485344     -0.05691607441162     -0.00002513808900
  C          -8.29586466852989      1.32067712715022     -0.00000812638645
  C          -7.14875679415596      2.06899159715647      0.00000954853844
  C          -1.99893884743067     -0.42395721221890      0.00000311588943
  C           1.93175459728092     -0.05046249428378      0.00000203175653
  H           3.00470262285944      1.80107865708094      0.00000303150310
  H           0.98741180376195      3.19075154249409     -0.00001602792361
  H          -2.64563446433957      2.26237192920785     -0.00001469797576
  H           1.21710848888666     -2.90498672904086     -0.00000494066849
  H          -1.05721483606374     -3.78556283767611     -0.00001145254763
  H          -3.20471575717685     -3.64068414513480      0.00000326371712
  H          -1.13733825743787      2.39043425019128     -0.00001671789344
  H          -4.80531686586615      3.28806489420552      0.00001855674679
  H          -7.80037977300250     -2.65406574235049      0.00001751181762
  H          -5.59633097614542     -3.79395929955211      0.00001056692783
  H          -9.06556015336439     -0.68816660900329     -0.00003626504470
  H          -9.26784292131851      1.79698506847798     -0.00000652560672
  H          -7.17160677324904      3.14946559240317      0.00002450108429
  H           2.84620733355600     -0.64032650063501      0.00000421953608
38
BNPAH_12092
  C           1.99012425038637      1.27580930861730      0.00017452320259
  C           0.85575575993530      2.10836759322574      0.00036953446647
  C          -0.39392314013432      1.56408839778223      0.00028008922864
  C          -0.67212174144025      0.16229771971704      0.00001134270799
  C           0.50725777505402     -0.68074581074542     -0.00015809639202
  C           0.48506350070816     -2.08435354750947     -0.00034943943553
  B          -0.79311092995501     -2.79328021419836     -0.00022895714768
  C          -2.03853161459824     -1.89201144943119     -0.00003496351833
  C          -3.24967263259394     -2.57146183010735      0.00007972864803
  C          -4.48296863230149     -1.95461541259628      0.00015338276786
  C          -4.50502706060005     -0.53386251506288      0.00007271420962
  C          -3.29059039609831      0.22739684454017     -0.00002165035482
  C          -3.49572582931131      1.64182189487222     -0.00018749755860
  C          -4.70511965942881      2.25927567525916     -0.00024930207010
  C          -5.89317362741571      1.50179077442758     -0.00014228289551
  C          -5.77710327600627      0.08547412733879      0.00000738347329
  C          -6.97720161447555     -0.69429833097692      0.00012076557509
  C          -6.90440451746311     -2.11728812435312      0.00022121363954
  C          -5.68820728646065     -2.70709004165218      0.00023566807705
  C          -8.19405380597498     -0.03713140113922      0.00007412135735
  N          -8.23938124209274      1.30809864224971     -0.00008399853709
  C          -7.15284954047190      2.08219217139322     -0.00020833955931
  C          -1.99635851098697     -0.44549335290561     -0.00001161972771
  C           1.80122194033988     -0.06483746814103     -0.00009382379759
  H           2.98821672865226      1.69835936354937      0.00023631187165
  H           0.96454966372194      3.18627719994549      0.00061978030242
  H          -2.65913662505274      2.30396721969735     -0.00028885946535
  H           1.45961744978631     -2.56576145641435     -0.00049322452016
  H          -0.93989292849164     -3.99063353391807     -0.00027996664521
  H          -3.21188280139435     -3.65637831074208      0.00008936668679
  H          -1.17250076433555      2.29552396169027      0.00044681520689
  H          -4.75893848586339      3.34117469545068     -0.00038524221199
  H          -7.81837884401538     -2.69777077963338      0.00028500321344
  H          -5.60532917923257     -3.78831423195668      0.00030319981369
  H          -9.14211195743896     -0.55436077406343      0.00014795242254
  H          -9.14372898464421      1.75316063558575     -0.00012194555488
  H          -7.30918802169564      3.15143867240999     -0.00034530348191
  H           2.65441758138983     -0.73355631220505     -0.00024438399717
38
BNPAH_12133
  C           1.99829728435518      1.30822784105814     -0.00004408142037
  C           0.86624023697147      2.12471087182228     -0.00015213310753
  C          -0.39481937443586      1.58711049408506     -0.00015246586600
  C          -0.66504962823872      0.19046563057523     -0.00002386444109
  C           0.51442661438029     -0.61388673995811      0.00006229300250
  C           0.45049208852602     -2.03218139689697      0.00015629554912
  C          -0.74765829105248     -2.63815406951187      0.00008217495090
  C          -1.96397107599844     -1.89689691723514     -0.00000845705827
  B          -3.23399442696591     -2.72406426635201     -0.00007805535484
  C          -4.53864648916760     -2.00616467469858     -0.00006879138058
  C          -4.53181409854687     -0.59909964526219     -0.00001226270363
  C          -3.30860508897728      0.16287546261263      0.00000792267768
  C          -3.48316708138521      1.55482395628095      0.00004945443542
  C          -4.68774138007900      2.17959387436544      0.00008872421022
  C          -5.87619153657440      1.44921511022461      0.00008465807186
  N          -5.78823287013409      0.06580180049546      0.00001624067239
  C          -6.98361356831438     -0.66299243924256     -0.00002549194453
  C          -6.94628481038851     -2.08013528260844     -0.00007023877084
  C          -5.76037643259029     -2.71607418095168     -0.00008830964372
  C          -8.20485478949310     -0.00541678264016     -0.00001238266191
  C          -8.28102624652278      1.37415859239953      0.00005072553694
  C          -7.11951530298430      2.09465000529812      0.00011414740475
  C          -1.98388335681990     -0.49112811679895     -0.00001270610094
  C           1.80501950520548     -0.04020116104020      0.00007087269988
  H           2.99419266332516      1.73344427443511     -0.00004904624224
  H           0.97203671941862      3.20298371169259     -0.00025789749552
  H          -2.64000050057013      2.20564265451407      0.00000176946993
  H           1.37626123064935     -2.59593438688425      0.00024084755595
  H          -0.82060117891672     -3.71926202117443      0.00011481326301
  H          -3.19327346797852     -3.92640877579047     -0.00012683151297
  H          -1.16588173467507      2.32646195017864     -0.00019196694139
  H          -4.75533692867985      3.25782175668252      0.00012002880948
  H          -7.89329600599749     -2.60112087468963     -0.00008426079953
  H          -5.71551435060573     -3.79917505565689     -0.00012036155303
  H          -9.09448330661771     -0.61852551973236     -0.00005602014668
  H          -9.24232394087410      1.87256271492318      0.00005552851359
  H          -7.11421275150497      3.17524486581122      0.00016528871857
  H           2.65301367225785     -0.71570526032989      0.00015283960343
38
BNPAH_12280
  N           1.96315600800296      1.20915905288267     -0.00007633861669
  C           0.89926973705174      2.04636122209358     -0.00013317872741
  C          -0.36296351076093      1.55756004428712     -0.00010328533570
  C          -0.66481069627361      0.15985340999600     -0.00000356439803
  C           0.51991851489110     -0.67279401496858      0.00004516651102
  C           0.42233395692945     -2.09814303119279      0.00012468674167
  C          -0.79395582342796     -2.65382132719261      0.00010938441882
  C          -2.00073252066244     -1.87519142434386      0.00004295525186
  C          -3.17994411860293     -2.59385052086414      0.00000390329697
  C          -4.41394158599210     -1.95420106849755     -0.00004862340495
  C          -4.43807794448686     -0.53765480003763     -0.00003029700177
  C          -3.25730553350379      0.25825550912989      0.00000954591155
  C          -3.47573803029985      1.67989540226048      0.00007304378318
  C          -4.70934746770420      2.29592539831615      0.00009334028630
  C          -5.92905750625068      1.58985686506338      0.00004574644338
  B          -5.80305907369993      0.10381729926951     -0.00002632484067
  C          -7.04699184026999     -0.74223335995517     -0.00006256239348
  C          -6.87458305326589     -2.16538537592866     -0.00010795321884
  C          -5.63575509888378     -2.72588749575474     -0.00009431320459
  C          -8.26582630140614     -0.07956614001506     -0.00003407810112
  C          -8.34291259024163      1.32796377494306      0.00003103428993
  C          -7.22186916159742      2.14419068639984      0.00007552061956
  C          -1.96644943582867     -0.42621748033295      0.00001783964462
  C           1.77517774364771     -0.11624371975588      0.00001052934929
  H           2.89727606013818      1.58236732174088     -0.00010152297298
  H           1.11584306640496      3.10467402629798     -0.00020223327401
  H          -2.66094244710124      2.37356612328085      0.00011226868463
  H           1.32663882004769     -2.69432585941905      0.00016961333168
  H          -0.90319616041174     -3.73200180869477      0.00015018482000
  H          -3.12824575998097     -3.67770274688197      0.00001088686895
  H          -1.13632619780939      2.29433579375646     -0.00016142360669
  H          -4.70768366908758      3.38653794470456      0.00015045198677
  H          -7.74336086353532     -2.82251279777656     -0.00014481888921
  H          -5.53366412604830     -3.80624572552205     -0.00011718943020
  H          -9.20143367873519     -0.63861664550705     -0.00005965113213
  H          -9.32455002991031      1.78912815057463      0.00005260777379
  H          -7.36606700127235      3.22415013559987      0.00013594985396
  H           2.66478431993740     -0.73173181795585      0.00004269868053
38
BNPAH_12281
  C           1.98337817630714      1.24449221776468     -0.00001310261460
  N           0.86869791802712      2.00854898007181     -0.00000895979194
  C          -0.37060270389551      1.50835706602070      0.00000455158525
  C          -0.64170562674408      0.14343643819317      0.00000391609811
  C           0.53813830522020     -0.68341897807311     -0.00000021042852
  C           0.42570707850851     -2.08545828152466     -0.00001063181688
  C          -0.81024961980122     -2.63593148010356     -0.00000546601444
  C          -2.00844462430357     -1.87360293799666     -0.00000894197661
  C          -3.19829332891284     -2.60522883332114     -0.00000755854600
  C          -4.41942768454592     -1.96941328527033      0.00000703583360
  C          -4.43503583874526     -0.54730515126469      0.00002206676554
  C          -3.24944488190645      0.24452680127390      0.00002942465430
  C          -3.46513968170593      1.67726352229896      0.00003228664727
  C          -4.69029907391511      2.29539109406011      0.00001938895026
  C          -5.91699277318756      1.59015657560667      0.00001605659117
  B          -5.79887638696277      0.10253889019281      0.00002338007393
  C          -7.04700527249298     -0.73837155307009      0.00000543929083
  C          -6.88390097074604     -2.16667600598592      0.00000761405919
  C          -5.65322369499674     -2.73419801232685      0.00001132924601
  C          -8.26175343045259     -0.06884341753867     -0.00001334621966
  C          -8.32901577959192      1.33757163648510     -0.00002131629595
  C          -7.20352477137448      2.15039265979874     -0.00001176590073
  C          -1.97987692030695     -0.43806254451403      0.00000825472995
  C           1.82351524309861     -0.09926326832866     -0.00000296752396
  H           2.93413660352720      1.75590309914096     -0.00001911369709
  H           0.96510905738678      3.01134159596911     -0.00001705437966
  H          -2.65070226490659      2.37430683009563      0.00002958566279
  H           1.32043217605955     -2.69461515339776     -0.00000733985375
  H          -0.91525427994333     -3.71536154768576     -0.00000732272776
  H          -3.13887402196506     -3.68890030290710     -0.00001507799409
  H          -1.13591007667202      2.25582629725515      0.00001778073904
  H          -4.68780838546078      3.38604438635804      0.00000727865179
  H          -7.75828887751608     -2.81611393918651      0.00000610775632
  H          -5.55663848522051     -3.81529560756966      0.00001254983615
  H          -9.20062665806074     -0.62224480785716     -0.00002647029262
  H          -9.30814918404936      1.80477742839583     -0.00003257160947
  H          -7.34311911341934      3.23101222876880     -0.00002864159038
  H           2.69467985366662     -0.74031463982788     -0.00000618789737
38
BNPAH_12282
  C           1.90110100103869      1.31322559198196      0.00014882105261
  C           0.74607301739650      2.04317393314520      0.00024869796927
  N          -0.44054327998881      1.42490259099805      0.00016224408560
  C          -0.64627675210574      0.08057642972281     -0.00000795444620
  C           0.54915386694735     -0.70339483688898     -0.00007025256825
  C           0.44279938283475     -2.12645661797845     -0.00015355257590
  C          -0.77600392389508     -2.68594093975640     -0.00014538023633
  C          -1.98923343490847     -1.91543367516664     -0.00007974364118
  C          -3.18182307955249     -2.62192462441904     -0.00003941351544
  C          -4.40133361603502     -1.96294341031807      0.00001533030721
  C          -4.41113548584484     -0.54318746125985     -0.00003663771479
  C          -3.22093136294198      0.23547270534470     -0.00009062029751
  C          -3.42108728552700      1.66643842596589     -0.00017710169848
  C          -4.64857746533023      2.29730444413310     -0.00020048867096
  C          -5.87351847092481      1.60501197500485     -0.00011466550853
  B          -5.76747613228363      0.11664436202895     -0.00001972697864
  C          -7.02293083446234     -0.71412312195326      0.00009128649606
  C          -6.86796578211012     -2.14236635252255      0.00016172469233
  C          -5.63879550910861     -2.71720609380848      0.00011123942444
  C          -8.22988602060921     -0.03568423207073      0.00010784220837
  C          -8.28849286699736      1.37545867862380      0.00001010225012
  C          -7.16059876411569      2.17757367630727     -0.00010754298033
  C          -1.95815489472043     -0.47988197997727     -0.00006986793857
  C           1.78229570127687     -0.07175402471725     -0.00000912360560
  H           2.86140481662219      1.80693244378474      0.00020925202262
  H           0.71647993660354      3.12372099999334      0.00040088164308
  H          -2.62410688358479      2.39618927890898     -0.00024670200582
  H           1.34755112852504     -2.72109871359003     -0.00020103463300
  H          -0.87986183528131     -3.76470287625158     -0.00018016519376
  H          -3.14495485858707     -3.70621569861761     -0.00003076535232
  H          -1.27238802315138      1.99356682098595      0.00023214247801
  H          -4.63480699290809      3.38757816560523     -0.00028774856011
  H          -7.74523665424083     -2.78763405141689      0.00024766925876
  H          -5.55060566002461     -3.79876545424498      0.00016161611947
  H          -9.17340054781133     -0.58100041845480      0.00019352094761
  H          -9.26477676697011      1.84782094446865      0.00001768104650
  H          -7.29074652245696      3.25905557337769     -0.00019197787169
  H           2.67439785523344     -0.68766445696828     -0.00005858600865
38
BNPAH_12284
  C           2.00709819621747      1.19137571025301     -0.00023823666973
  C           0.89830251126104      2.05627061544188     -0.00042842591665
  C          -0.35972316971496      1.54856025115307     -0.00030662822031
  C          -0.65309603271507      0.15450511639595     -0.00000031639666
  N           0.48200763351001     -0.64515210950350      0.00014231250183
  C           0.39479027653312     -2.03066747553494      0.00033818926646
  C          -0.79535034846707     -2.62371082831602      0.00029237467165
  C          -2.00914785869190     -1.87679143491904      0.00012248618605
  C          -3.18537893826034     -2.60224936993916      0.00001559173632
  C          -4.41262308216448     -1.95929683440887     -0.00012058614412
  C          -4.42952874017935     -0.53939531709198     -0.00004721967554
  C          -3.24742614432870      0.25956161199791      0.00007584761050
  C          -3.47129037010167      1.68277930329656      0.00025174150867
  C          -4.70514171725173      2.29451503567527      0.00030077049949
  C          -5.92390952749053      1.58705289833548      0.00015434623220
  B          -5.79593535701142      0.10163775448947     -0.00004375622869
  C          -7.04137249129210     -0.74353976407188     -0.00017655573738
  C          -6.87302857517015     -2.16749366812220     -0.00030395551849
  C          -5.63654867104899     -2.72941945257437     -0.00026854438411
  C          -8.25958712796160     -0.08138137726954     -0.00013280960703
  C          -8.33657715514002      1.32611467701995      0.00005913017225
  C          -7.21608378898307      2.14211161306447      0.00021045282520
  C          -1.96307282301675     -0.43521996726264      0.00007613816967
  C           1.75575867363085     -0.13067278643742      0.00004525531016
  H           3.02577576163668      1.55027746954873     -0.00032413702073
  H           1.03886972278348      3.12936961213311     -0.00069136355247
  H          -2.66416299040142      2.38490439003430      0.00039237082599
  H           1.33722218967301     -2.55573057731730      0.00046807488949
  H          -0.84651730243214     -3.70441091116491      0.00040044776544
  H          -3.12927673153416     -3.68563690316416      0.00003392226428
  H          -1.17245966638121      2.23829877824149     -0.00048555117926
  H          -4.70483567360324      3.38488839301033      0.00047015256489
  H          -7.74347261993036     -2.82218923447201     -0.00041052216850
  H          -5.53463930160749     -3.80971431399034     -0.00034168694944
  H          -9.19483134013182     -0.64074710419670     -0.00022604165115
  H          -9.31825781503700      1.78716082213900      0.00010175089308
  H          -7.35938209508431      3.22199289620422      0.00038844233626
  H           2.53844248988744     -0.87469051867722      0.00020353879036
38
BNPAH_12286
  C           2.06103922441571      1.18711308587947      0.00017884956528
  C           0.94672483092363      2.04475469572232      0.00000662477370
  C          -0.33623495674423      1.57374482568289     -0.00011391704826
  C          -0.64542042736557      0.18679693182476     -0.00007214048316
  C           0.50935290966854     -0.65756017719673      0.00001663955780
  C           0.35023693092085     -2.03940336833392      0.00000587165572
  N          -0.84917914921720     -2.55409637952482     -0.00006125310991
  C          -2.02669304517571     -1.82865755032311     -0.00008704163106
  C          -3.18278944981810     -2.59413441840253     -0.00007499110058
  C          -4.41245069473100     -1.96833066022097     -0.00005146618416
  C          -4.44022837117876     -0.54559822030985     -0.00006131232078
  C          -3.26652957353489      0.26140389051552     -0.00011842656386
  C          -3.48509677009932      1.68525741860057     -0.00016695437425
  C          -4.71745778567910      2.29364214229836     -0.00009115772387
  C          -5.93503715337555      1.57736162990843      0.00000866858995
  B          -5.80665672067871      0.09084302027041     -0.00000348465490
  C          -7.04795297436931     -0.76034262799563      0.00003780486509
  C          -6.87177579614055     -2.18533506498627      0.00001381978986
  C          -5.63542428657427     -2.74484845523503     -0.00002234734985
  C          -8.26801225129397     -0.10305142933005      0.00011230973748
  C          -8.34693654534465      1.30444901171296      0.00013884832871
  C          -7.22944977190559      2.12549743464108      0.00008464240171
  C          -1.97385672201115     -0.39822632535926     -0.00012047405648
  C           1.83271261531358     -0.15085959890155      0.00016280157566
  H           3.06664806295126      1.58603528384230      0.00030349197889
  H           1.10172155668457      3.11707699110962     -0.00001175992447
  H          -2.66226361698915      2.36926126383657     -0.00026855819132
  H           1.19057457102915     -2.72124841720165      0.00006020302684
  H          -0.95386119424741     -3.55811238564661     -0.00005957743800
  H          -3.10482582972861     -3.67799580955274     -0.00007200047961
  H          -1.11490001337630      2.30599184707138     -0.00025311370016
  H          -4.72378478760506      3.38373723597310     -0.00012960874407
  H          -7.73990081386000     -2.84316435789733      0.00003254335783
  H          -5.53166885266699     -3.82521609318818     -0.00003165484019
  H          -9.20219686920484     -0.66416394499957      0.00014362453702
  H          -9.32989728364926      1.76307895481359      0.00019770330987
  H          -7.37821729004474      3.20461408527274      0.00010211962907
  H           2.65529929470272     -0.85704246437029      0.00026667323848
38
BNPAH_12288
  C           2.05279138187455      1.18857575455918      0.00005573300042
  C           0.95157137909028      2.04737963294377      0.00007790784348
  C          -0.32987203475299      1.55869433436123      0.00004441499782
  C          -0.62338131510217      0.17528283401256     -0.00001123553118
  C           0.51305480697134     -0.67797182085687     -0.00004140413184
  C           0.35906496878623     -2.09166053950530     -0.00006024985725
  C          -0.86648713652148     -2.63861854877388     -0.00004694735557
  C          -2.02230200725492     -1.80948907326928     -0.00002123745644
  N          -3.20514540267302     -2.49627082351365     -0.00000443246919
  C          -4.41239868476483     -1.90872902504213      0.00001564192893
  C          -4.44475415477037     -0.51337834797879      0.00000395431689
  C          -3.26331676790839      0.28516313063225     -0.00002248632927
  C          -3.48649043684997      1.69240392968982     -0.00006634872330
  C          -4.73475863309024      2.29523040566500     -0.00006372867459
  C          -5.94712800944584      1.58306540212870     -0.00003667693268
  B          -5.81424689812776      0.09957595129756      0.00000108444987
  C          -7.04071097951754     -0.76785409007573      0.00003011595601
  C          -6.84376165421386     -2.18504690945187      0.00004416187994
  C          -5.59362361800390     -2.72821979540730      0.00003832379040
  C          -8.26699626999966     -0.11880108246630      0.00003997144460
  C          -8.35873204149776      1.28920207827250      0.00000856653103
  C          -7.24936649232311      2.12036912202849     -0.00003350547616
  C          -1.97144797755845     -0.40697148630163     -0.00002133674143
  C           1.82162100712614     -0.15705126809325     -0.00000680637382
  H           3.06186400479694      1.58084167393580      0.00008945389188
  H           1.10134282191482      3.12023426436716      0.00012623269549
  H          -2.66699134553561      2.37976489964095     -0.00006441646207
  H           1.24543035995917     -2.71468987553974     -0.00007565479014
  H          -0.99782670802188     -3.71505226757697     -0.00004196086198
  H          -3.15302086455029     -3.50264243199876     -0.00000436187177
  H          -1.11106704509966      2.28873444276535      0.00003815382231
  H          -4.74218211214159      3.38517209591475     -0.00008384685168
  H          -7.69760907223789     -2.86030186839579      0.00006265484653
  H          -5.46474065556697     -3.80565310603814      0.00004397359300
  H          -9.19727631850428     -0.68583744845344      0.00006317850641
  H          -9.34560448328653      1.73766060085316      0.00001425816095
  H          -7.40921024482875      3.19744745822015     -0.00006597360767
  H           2.64931563363029     -0.85728920254957     -0.00002317115794
38
BNPAH_12301
  C           1.98101815569471      1.25154979391291     -0.00054681178669
  C           0.86093358387801      2.06524532688897     -0.00128658328780
  C          -0.41434565049585      1.53740279150179     -0.00100557382074
  C          -0.66599377499529      0.15878827575057     -0.00005113299025
  C           0.49030175871542     -0.65733036745447      0.00054918374165
  C           0.38990071784293     -2.08315328648836      0.00109137534204
  C          -0.81695943305878     -2.63604900752710      0.00075081906316
  C          -2.01934958445046     -1.85003268546086      0.00021858188387
  C          -3.18499002604524     -2.57893985089235     -0.00009986338695
  C          -4.42851059042386     -1.96907214063182     -0.00039083382051
  C          -4.42816878472525     -0.56139294858467     -0.00010883263190
  C          -3.23993996306256      0.21723268282109      0.00014804632442
  C          -3.43415664474682      1.63289614712306      0.00060481822682
  C          -4.66896626450660      2.25772419749545      0.00084392916031
  C          -5.89609238512735      1.57817585571645      0.00057445098145
  B          -5.78395714178232      0.09526699723888     -0.00000980877197
  C          -7.03278539187566     -0.74267038469493     -0.00041165980826
  C          -6.87891798190596     -2.16593405600429     -0.00086901567999
  C          -5.64503448400486     -2.73925037418364     -0.00080831870073
  C          -8.24426441266093     -0.06695953106895     -0.00028316743988
  C          -8.30968882844911      1.34196080684764      0.00030109624022
  C          -7.18357383792529      2.14826598250199      0.00075484664012
  N          -1.98065212151373     -0.45418904904652      0.00010704628483
  C           1.77514037342108     -0.10317522937653      0.00038701337919
  H           2.97975485028149      1.66810593801234     -0.00078410133641
  H           0.96545610963470      3.14299952626494     -0.00216558465409
  H          -2.63060427912116      2.32657415085822      0.00078834258164
  H           1.29434272356002     -2.67793455345933      0.00155092329797
  H          -0.95305233399909     -3.70831622926357      0.00094539093722
  H          -3.09285438532071     -3.65730655130724     -0.00007565200904
  H          -1.18966321158741      2.26273620887544     -0.00172486402000
  H          -4.64388645587579      3.34739191518973      0.00125888739906
  H          -7.75473299939377     -2.81273160309644     -0.00120607827555
  H          -5.54653179122719     -3.81913423911842     -0.00108405187539
  H          -9.18464765500022     -0.61695574503795     -0.00058380123277
  H          -9.28751370420967      1.81011031798976      0.00042245694924
  H          -7.31670754010381      3.22891709422637      0.00126855199120
  H           2.61530638456641     -0.78754417651816      0.00092597510453
38
BNPAH_12302
  C           2.00432070396639      1.20455119440916     -0.00005738481237
  C           0.94328561721089      2.06433135722982     -0.00003303964630
  C          -0.34825820456472      1.55445427644124      0.00001789229892
  C          -0.65234220321401      0.18467765503614      0.00001556663793
  C           0.50398938906786     -0.65907830671339      0.00000368904222
  C           0.42647752186734     -2.06281774838420      0.00001493795785
  C          -0.80546024414007     -2.61716418900514      0.00003411143552
  C          -2.00457119957168     -1.85540892005514      0.00004325965276
  C          -3.18818225500590     -2.59396400751487      0.00003233508634
  C          -4.41579413459186     -1.96605084498381      0.00000817106094
  C          -4.43848641560998     -0.54591561547860      0.00000946514009
  C          -3.25613857936705      0.25418530056153      0.00003223272482
  C          -3.47838190534578      1.68496073826181      0.00004957444436
  C          -4.70658577631919      2.29574096833731      0.00003636542771
  C          -5.93079451796878      1.58351536726155      0.00000919643890
  B          -5.80525006454805      0.09652055066540     -0.00001032115448
  C          -7.04792949732049     -0.75110833584149     -0.00003244829791
  C          -6.87762860221197     -2.17663968868674     -0.00003110898779
  C          -5.64269846262788     -2.73829902883010     -0.00000733251147
  C          -8.26804717121721     -0.08706401495830     -0.00003964185477
  C          -8.34206864336088      1.31686424830309     -0.00002452664526
  C          -7.21877186420765      2.13614314295932      0.00000236153766
  C          -1.98153350969592     -0.41828505258884      0.00005399069335
  N           1.74406710629291     -0.10642474261909     -0.00003217333027
  H           3.04280839951280      1.50181934432575     -0.00009114636523
  H           1.11039230071636      3.13151224095974     -0.00004108068516
  H          -2.66277762610396      2.37915956033663      0.00005454289627
  H           1.32867816305038     -2.66290224976423     -0.00000475250206
  H          -0.90503341964442     -3.69665306636585      0.00002777570590
  H          -3.12246370999525     -3.67739616098339      0.00003359310046
  H          -1.13888876436520      2.27548387985911      0.00003464657339
  H          -4.70984134790930      3.38621984990388      0.00005265541703
  H          -7.74834515497336     -2.83109399010486     -0.00004816954613
  H          -5.54046674578762     -3.81889941902590     -0.00000770032198
  H          -9.20377780294312     -0.64575999332218     -0.00005638144326
  H          -9.32312023940174      1.77997700278445     -0.00003019623895
  H          -7.36431554508454      3.21597435035049      0.00002165416461
  H           2.51954240541268     -0.75189665276030     -0.00004161309364
38
BNPAH_12306
  C           1.95262069739748      1.25912054334033     -0.00135581416422
  C           0.79990453305543      2.05371457960935     -0.00349949310336
  C          -0.42282941331252      1.47027883679296     -0.00274732294208
  N          -0.64267529424061      0.11631062200547     -0.00013062865134
  C           0.49100930541160     -0.67581271088010      0.00151442512025
  C           0.39824397083682     -2.07458030125757      0.00309357617268
  C          -0.82387604202949     -2.64628865880635      0.00218947582611
  C          -1.99835878446836     -1.87325681039649      0.00062928747072
  C          -3.20297993058527     -2.57410699055580     -0.00031848761580
  C          -4.41737926642824     -1.95210760599055     -0.00116384420413
  C          -4.45357012752702     -0.50821767998296     -0.00037032624009
  C          -3.21906213797929      0.26309958308062      0.00012281909666
  C          -3.44404063300691      1.69580421703800      0.00116566864498
  C          -4.67068375247475      2.26251939280691      0.00187735126332
  C          -5.86971733259535      1.50772272855714      0.00144451372471
  C          -5.73457468704396      0.09027458160688     -0.00002802180548
  B          -7.01651202086431     -0.74348103406424     -0.00107239087516
  C          -6.84874330989865     -2.27312165910987     -0.00255527728990
  C          -5.60223194204599     -2.77941114571998     -0.00235285780734
  C          -8.31934971211497      0.01330483125167     -0.00038993929076
  C          -8.30356395035478      1.39266844541187      0.00125513884571
  C          -7.11168433835987      2.12875494245677      0.00217017074350
  C          -1.97493060593638     -0.44575470136182      0.00022252736682
  C           1.77363332033487     -0.08541052621081      0.00115429821966
  H           2.94158693370673      1.69756625407309     -0.00186092272552
  H           0.84937379023947      3.13331577075777     -0.00584726169181
  H          -2.67016726986983      2.43404571644536      0.00138394556528
  H           1.31301847402047     -2.64901136027166      0.00435211364909
  H          -0.92939719020175     -3.72443150545624      0.00277879191678
  H          -3.15707669494634     -3.65743729050241     -0.00032263940470
  H          -1.29140982812622      2.07705260594195     -0.00446314897052
  H          -4.73476963429598      3.34650705765981      0.00279644395323
  H          -7.68209748570571     -2.97223967961070     -0.00355722300830
  H          -5.41609985732388     -3.85165352345498     -0.00307050905854
  H          -9.29261319897837     -0.47308154540843     -0.00105511975619
  H          -9.23622306710981      1.95296588193738      0.00186362562609
  H          -7.15143428440189      3.21338823972273      0.00342122105908
  H           2.61427176722365     -0.76573810145511      0.00272483434058
38
BNPAH_12456
  C           2.12581431428669      1.20906997501284     -0.00004635642609
  C           1.05806824270584      2.10082428163959     -0.00005584636483
  C          -0.23593676687667      1.62364133778004     -0.00003438062408
  C          -0.55563009009379      0.25350462659933     -0.00000316257092
  C           0.55238471031121     -0.63495600941146      0.00001032928679
  C           0.38643909927706     -2.07637904224132      0.00004479111307
  C          -0.81083048027608     -2.67997950350175      0.00004590559561
  C          -2.03202132632853     -1.91421629164164      0.00002659244298
  C          -3.23624370106799     -2.57092493406891      0.00000889924063
  C          -4.48275888706863     -1.92687515837054     -0.00001236367121
  C          -4.55661765984237     -0.50663599064431      0.00000697509998
  C          -3.38442897574816      0.29000298773810      0.00003286621568
  C          -3.58571568569045      1.69145277779331      0.00005290025390
  C          -4.81132539140687      2.26039772013798      0.00004950661617
  C          -5.97616512290932      1.46477866253008      0.00002352099425
  N          -5.84082760454007      0.08298565679214     -0.00000033211599
  C          -6.99505075351949     -0.69834623503658     -0.00002538061191
  C          -6.88119040051732     -2.10891259994275     -0.00004629885719
  C          -5.66481136025206     -2.69294281725765     -0.00004098222846
  C          -8.24753161819556     -0.09274557561614     -0.00001826743469
  C          -8.37707207307037      1.27747250118265     -0.00000364306469
  C          -7.24069964479217      2.04990064400558      0.00001773091069
  B          -1.99672250071278     -0.38804385364746      0.00002008404945
  C           1.86590309192542     -0.14062501355629     -0.00001521239384
  H           3.14693336649174      1.57195872195799     -0.00006688167464
  H           1.23870461131850      3.16943647846352     -0.00007936432539
  H          -2.73059739477546      2.34594010102319      0.00007943553058
  H           1.29288255191756     -2.67311207444271      0.00006449527921
  H          -0.86722209002072     -3.76604099853951      0.00006820548958
  H          -3.25990793794361     -3.66023917475351      0.00001203697389
  H          -1.01702608062977      2.36763578285128     -0.00003744035539
  H          -4.94345531507140      3.33338817390475      0.00006637404596
  H          -7.79732839101300     -2.68177630096160     -0.00007009012750
  H          -5.57600236765024     -3.77352648716573     -0.00006144698173
  H          -9.11185946620016     -0.74148996534473     -0.00002954875468
  H          -9.35694090179540      1.73797495817031     -0.00000569385217
  H          -7.28737770153174      3.12953524143733      0.00002695305348
  H           2.68777370130617     -0.84886160287544     -0.00000390975649
38
BNPAH_12565
  C           1.92421879629558      1.50741639757304      0.00010236305488
  C           0.83255877074730      2.41366929498983      0.00012610821192
  C          -0.47703485925926      2.01905139281547      0.00006242044931
  B          -0.83403429616411      0.52057594547011     -0.00003093479217
  C           0.39862362209657     -0.38076811903605     -0.00005468224024
  C           0.25130193461819     -1.77523441943847     -0.00012917184894
  C          -0.97362896781625     -2.37959099621261     -0.00014220080566
  C          -2.18630965575761     -1.64576047015304     -0.00008961684469
  C          -3.43016067141869     -2.39858028046247     -0.00002343049160
  C          -3.46052308480977     -3.78300874016226      0.00003226473529
  N          -4.61895754507192     -4.45878645071624      0.00008006287086
  C          -5.82221228795042     -3.87196149453800      0.00008134877831
  C          -5.89661248133853     -2.49731808312497      0.00005026591452
  C          -7.16368690696148     -1.82584900996238      0.00004715955844
  C          -7.20341977461698     -0.48262040993524      0.00001081428470
  C          -6.00701419905270      0.31167092093330     -0.00000926948283
  C          -6.07762235414071      1.69468939158240     -0.00003497830920
  C          -4.90221085407114      2.42745105395319     -0.00007670203888
  C          -3.67084808039794      1.80455894968784     -0.00009215144522
  C          -3.52234748245849      0.41052408191342     -0.00005425405911
  C          -2.21149903223453     -0.22810027347401     -0.00006475026946
  C          -4.73728067579947     -0.33205361853415     -0.00001810147375
  C          -4.69209110662312     -1.74134559221139     -0.00000032442621
  C           1.71052662818195      0.16257684796779      0.00001478271109
  H           2.93554760548898      1.89932316312643      0.00016287355669
  H           1.07042367043778      3.47530363814007      0.00020296292938
  H          -2.78796493975927      2.41371329444294     -0.00013104413381
  H           1.13826208798209     -2.40774503455168     -0.00015718930209
  H          -0.98829230871446     -3.46068141840166     -0.00019971299184
  H          -2.57502492151917     -4.39594347967448      0.00005325574712
  H          -4.57539735432042     -5.46563206501625      0.00012207892068
  H          -6.68870572879536     -4.51740496553146      0.00011111611038
  H          -8.07201416808358     -2.41618878584435      0.00006927949382
  H          -8.15555438909857      0.03583529636824      0.00000724017210
  H          -7.04271797178947      2.18730386673053     -0.00002558056730
  H          -4.94346523552157      3.51030315386426     -0.00010086114851
  H          -1.16332577700817      2.85884497025738      0.00009644661224
  H           2.56372299470475     -0.51414795283507      0.00000211255976
38
BNPAH_12595
  C           1.86665314188503      1.63437270522410      0.00039753305074
  C           0.67412500034579      2.40029462746927      0.00047688785286
  C          -0.58313241683801      1.85657367686793      0.00030698094532
  C          -0.85213337092917      0.44610781609444      0.00000594221779
  B           0.42835582073318     -0.39836662811706     -0.00021211833310
  C           0.27631661323824     -1.90058787426808     -0.00091941622738
  C          -0.96563326460406     -2.44040757413949     -0.00101657037875
  C          -2.16273875727408     -1.66828776546034     -0.00034413856311
  C          -3.41268180480790     -2.41105471878430      0.00011544847845
  C          -3.46687684751876     -3.81767259143011      0.00076416703912
  C          -4.65586505473104     -4.51359345654812      0.00082780151135
  C          -5.87389612633256     -3.85354446673025      0.00036479088538
  C          -5.88805012350645     -2.47050864778823      0.00000973583743
  C          -7.13262128265792     -1.75585189336733     -0.00024533345184
  C          -7.16353840584150     -0.41562017703707     -0.00042486827698
  C          -5.93745360827430      0.33152247479508     -0.00031311397710
  C          -5.97806038079215      1.70404496910144     -0.00025526273489
  N          -4.82307587404804      2.37292185487556     -0.00001103651479
  C          -3.61896390876714      1.78482908658622      0.00011460274862
  C          -3.44977336812840      0.40838160957085     -0.00003093092391
  C          -2.12956325397625     -0.23671984366651     -0.00007066247375
  C          -4.67828726835446     -0.33542060814229     -0.00017740272226
  C          -4.66169393763388     -1.74574764399977     -0.00005680717922
  C           1.79532141943790      0.27798534528978      0.00005818834332
  H           2.81647496699021      2.16405537978780      0.00056036740723
  H           0.75383372831689      3.48295479165849      0.00070012867850
  H          -2.80497025450792      2.47401854063179      0.00035352506897
  H           1.12061917945170     -2.58708960704960     -0.00143929017142
  H          -1.05481215380922     -3.51656597321008     -0.00178155156837
  H          -2.55978923327813     -4.39820390301216      0.00134968389860
  H          -4.63012208832670     -5.59676828483953      0.00128054847368
  H          -6.80704472211011     -4.40378150899886      0.00038283724858
  H          -8.05213055434825     -2.32960089240829     -0.00025796448005
  H          -8.10125574320882      0.12702406027548     -0.00057930911513
  H          -6.89220896356308      2.27987036670459     -0.00033952191942
  H          -4.84507821506148      3.38050422679222      0.00008066187565
  H          -1.32920343369192      2.63333015751051      0.00034860528511
  H           2.72418254652283     -0.28930663023809     -0.00002613783522
38
BNPAH_12720
  C           1.54088709318686      1.64617573812262     -0.37639305934455
  C           0.33626867989812      2.19922670831154     -0.86229204898014
  C          -0.82359360247983      1.52647912795583     -0.70737686576060
  N          -0.88558433938538      0.30086402780640     -0.07230092892361
  C           0.29407718619653     -0.32463541329907      0.25327022676013
  C           0.25310330612456     -1.67135977448692      0.62659447199311
  C          -0.91258703568556     -2.36472772151033      0.51959339717955
  C          -2.13301855694650     -1.72949622926513      0.20566727624323
  C          -3.36510139036700     -2.48176936225222      0.03873318645917
  C          -3.36646571461669     -3.86747567614235     -0.04969414311505
  B          -4.63504016436058     -4.63943078297110     -0.28938814258349
  C          -5.87165783183455     -3.79206745416249     -0.39546632072117
  C          -5.81304545785718     -2.41050765170876     -0.28431629704069
  C          -7.01721545238818     -1.61791865747304     -0.33847200027656
  C          -7.01589091657030     -0.28796960544455     -0.15288306127039
  C          -5.78748387001475      0.41570300343328      0.08268109775364
  C          -5.78269778591763      1.77225413423974      0.36435149168070
  C          -4.60200289650162      2.44205162322359      0.65346404909533
  C          -3.40151768011078      1.77424829129316      0.56903890146921
  C          -3.34562617001240      0.41698178575401      0.21000286705341
  C          -2.12461912024417     -0.33454065966764      0.11365254492676
  C          -4.55969496384043     -0.31654547635797      0.06027633809971
  C          -4.57433788366486     -1.72698266582785     -0.08261076800114
  C           1.50721133403669      0.39620519370689      0.14661100828248
  H           2.47236987529040      2.18960870114818     -0.46210395876101
  H           0.32026651795587      3.14676164162667     -1.38191474211667
  H          -2.49946946441738      2.31107520200948      0.83134395539726
  H           1.17462805409047     -2.14918910294971      0.92854184584843
  H          -0.92245195500662     -3.42485748850826      0.72738936148499
  H          -2.41026801899785     -4.37896692385307      0.01741370471642
  H          -4.64636138370739     -5.84058817242531     -0.38880097608024
  H          -6.86746473908578     -4.20609866801577     -0.54738505019444
  H          -7.95017897134675     -2.14424912686232     -0.50896450599853
  H          -7.93912288436070      0.28053871972983     -0.16375720757379
  H          -6.72810701855934      2.30274767901973      0.39229281745562
  H          -4.62034753005815      3.48375460577558      0.94792237369585
  H          -1.75981443905652      1.88603838563359     -1.09808077016353
  H           2.40718419061548     -0.10724695560625      0.47336293131064
38
BNPAH_12723
  C           1.86572155664755      1.47144727823299     -0.00269954939989
  C           0.74492124541259      2.32008742483492      0.00640742212273
  C          -0.53419028863602      1.84052325190171      0.00841350812764
  C          -0.84031824830288      0.44962827610491      0.00194018012616
  C           0.32364995943688     -0.38016936415923     -0.00667608307798
  C           0.17108768871259     -1.75910582982220     -0.01490619170086
  N          -1.02906860965939     -2.26733749334163     -0.01073498407512
  C          -2.20292879693705     -1.56746492452673      0.00089632213559
  C          -3.37889813887405     -2.40565056678813      0.00804824997528
  C          -3.30827728775529     -3.80134241548523      0.01760572323289
  B          -4.53599448468346     -4.65755409397298      0.01448380473770
  C          -5.81909072885403     -3.87904641762199      0.00136341158879
  C          -5.83001783223467     -2.49212744102877     -0.00350072775296
  C          -7.08198553413909     -1.78117544988460     -0.01155551531417
  C          -7.13243480303398     -0.44276411146298     -0.01279697854194
  C          -5.93135445779453      0.34431470635266     -0.00628824867750
  C          -6.02800924731739      1.72721968512759     -0.00381614236562
  C          -4.88903278887811      2.50086887911894      0.00478930753628
  C          -3.64811927609141      1.89813268905711      0.00906148517881
  C          -3.47008849487833      0.50868545651845      0.00476701192256
  C          -2.16129106446330     -0.16197441144451      0.00365240200219
  C          -4.65669833573467     -0.29900988504481     -0.00110262523577
  C          -4.62208660411904     -1.72550839189248     -0.00002717259787
  C           1.64473682846196      0.13370619602517     -0.00928927889937
  H           2.86847281549702      1.87748135851626     -0.00428607140376
  H           0.89105601250652      3.39353814713353      0.01225831474086
  H          -2.82205959106562      2.57403096470799      0.01622696473042
  H           1.00888215932564     -2.44373916153691     -0.02546242307709
  H          -1.15579641109833     -3.27361905436828     -0.01926037122321
  H          -2.34285734729956     -4.31245303713035      0.03459730610970
  H          -4.48085247980696     -5.86071689645320      0.02331214618069
  H          -6.80110697906018     -4.34949184334225     -0.00238567736730
  H          -7.99311395870978     -2.36906669238035     -0.01542438282265
  H          -8.08097889504041      0.08247010597292     -0.01767579000855
  H          -7.00981795027122      2.18705019546872     -0.00775175831486
  H          -4.95417177268627      3.58178599480518      0.00815497298810
  H          -1.30175541056203      2.58237666972455      0.01620193922888
  H           2.46909855198633     -0.56993979791599     -0.01654050080878
38
BNPAH_12760
  C           1.61554519345272      1.60354662615789     -0.44266292050360
  C           0.43042172832915      2.27934580380792     -0.76495049121551
  C          -0.79009867638885      1.68580741840280     -0.57655704264921
  C          -0.90479938283788      0.37443345252882     -0.05732247302524
  C           0.29946645844500     -0.32914510530063      0.16588940965749
  C           0.23796307599847     -1.71172136324054      0.49512933552308
  C          -0.93377346984354     -2.38093203808473      0.48909504305735
  C          -2.17490976247940     -1.70557083653700      0.27016324531641
  C          -3.41948238384429     -2.41908497196162      0.15369989164348
  C          -3.45694190393076     -3.83896567490023      0.12631778014259
  C          -4.56741404877384     -4.59228043851524     -0.13477223227306
  B          -5.87014361316557     -3.89939843160015     -0.42102719763594
  C          -5.82884798059668     -2.38239602026095     -0.34858280967579
  C          -6.99851482719468     -1.61742369955172     -0.48678748647296
  C          -7.00066489123547     -0.27283594485984     -0.29615520790730
  C          -5.80364968969810      0.39824668488221      0.01455930220390
  C          -5.81777193947903      1.76666394081968      0.31594324810397
  C          -4.67482770435966      2.40025509455539      0.70680585522942
  C          -3.47639561341259      1.70366374893679      0.68328260449115
  C          -3.41532180123405      0.38425205491265      0.27351880764029
  C          -2.15870104174747     -0.32176759544288      0.14471614599579
  N          -4.60774896902049     -0.30368776246948      0.05879372487727
  C          -4.61397625942936     -1.70905639039110     -0.06215477412829
  C           1.54237779928613      0.31210744440699     -0.00027044811629
  H           2.57481326127170      2.08780032706433     -0.57555174167982
  H           0.47617467826795      3.27755537256464     -1.18354855231081
  H          -2.56412225989202      2.18148278269807      0.99764018531902
  H           1.16366269803174     -2.23836574475255      0.69879504151974
  H          -0.93008262907303     -3.44205273440061      0.68446953247938
  H          -2.52045220264492     -4.35370140810278      0.30446655388469
  H          -4.43761488254393     -5.67040561290481     -0.12883247282237
  H          -6.90680763663929     -4.45766984058544     -0.66816414584317
  H          -7.92176415813918     -2.13585602097962     -0.72031329732694
  H          -7.90375026100618      0.31940515481409     -0.34416588729967
  H          -6.77150672381326      2.27370013046007      0.28009997640791
  H          -4.69456377727881      3.43570343536567      1.02280891693545
  H          -1.67586593830677      2.22398295726627     -0.88076043907397
  H           2.44531753492631     -0.25154279480234      0.20638401953160
38
BNPAH_12876
  C           1.62409670237287      1.56723474367927     -0.41204381190422
  C           0.45121059204975      2.23761790321119     -0.79024174378815
  C          -0.77223789472343      1.64980181684614     -0.61025052122416
  C          -0.89271827582718      0.35752803815766     -0.04864766675735
  C           0.29935217328823     -0.35043746757280      0.22185025899655
  C           0.22818739225989     -1.72598320356177      0.57924864319742
  C          -0.95316243479036     -2.37852347317864      0.53350215199746
  C          -2.17131160908082     -1.68581564559271      0.27020507387262
  C          -3.40647527431779     -2.42116012912185      0.09985097597421
  C          -3.41727405026498     -3.80118439251578      0.01298610730502
  C          -4.58502449772139     -4.50427443348986     -0.23446821830810
  C          -5.75188869791865     -3.81734450044616     -0.39342983783877
  C          -5.77651022877335     -2.41959183586529     -0.29977762960634
  C          -6.99468355013528     -1.72729324326888     -0.41792824129558
  C          -7.03481552679194     -0.38255756176707     -0.23088079491959
  C          -5.87544873639808      0.36335286660495      0.03097006525005
  B          -5.94987597263892      1.85579232973520      0.30618905144254
  C          -4.64361333537672      2.50526518700773      0.66634036116456
  C          -3.49650798161988      1.76436584484012      0.60291310890178
  C          -3.42572277988576      0.39258158676066      0.23175580331192
  C          -2.16858098524213     -0.30330602550064      0.14990521951837
  C          -4.62909460812915     -0.31600317894042      0.06040805294207
  N          -4.59842177034870     -1.72216860211591     -0.06427190311274
  C           1.54573830148300      0.29067024951098      0.07034067920630
  H           2.58757660501868      2.04656913697301     -0.53609014114397
  H           0.51154346288030      3.22071680074596     -1.24049170194289
  H          -2.56100881947344      2.21972332095445      0.90418887286656
  H           1.14027692015710     -2.25498758225211      0.82788950205052
  H          -0.96708634347300     -3.43583502985708      0.75336635329467
  H          -2.48719819843595     -4.33513606541225      0.10311142754977
  H          -4.56335617913304     -5.58442640472264     -0.30557466843645
  H          -6.69067089005446     -4.31843423768230     -0.58177083798292
  H          -7.88069722403221     -2.31295292633439     -0.61879855165798
  H          -7.98064486541251      0.14560387167694     -0.27800726069129
  H          -7.01434281441406      2.41516582658679      0.27015098658504
  H          -4.54192220741357      3.53396038486673      0.99915831209687
  H          -1.65804148110020      2.16768082713131     -0.94706669708039
  H           2.44558608341720     -0.26212479609051      0.31540822016661
38
BNPAH_12981
  C           1.86764137733871      1.51108785267404      0.00002545375500
  C           0.73538244623911      2.33602161933570      0.00006753625344
  C          -0.52336954728566      1.80071709706334      0.00005774400663
  C          -0.77495768090956      0.40420302705404      0.00001868470544
  C           0.39085211217936     -0.40715965020832     -0.00001121023975
  C           0.27381338991470     -1.81456138082850     -0.00004080568850
  C          -0.94733933698162     -2.38074600553742     -0.00003043582716
  C          -2.15215459022839     -1.62210636321904      0.00000022642051
  C          -3.39224495674745     -2.41067989915310      0.00000521144725
  C          -3.41131755915582     -3.83048955196210      0.00000125071086
  C          -4.59797770976643     -4.49701796207566      0.00000335667813
  N          -5.77363568872564     -3.83933751399589      0.00001798978873
  C          -5.84536520261848     -2.48183567593287      0.00002321614293
  C          -7.10165537336488     -1.83587764086981      0.00003358549455
  C          -7.17942152770000     -0.46247203235399      0.00003368672948
  C          -6.03901550313247      0.37291259038555     -0.00000393162789
  C          -6.10001466817005      1.77292970584314     -0.00004089984170
  C          -4.92704133960042      2.49598988004505     -0.00007304263899
  C          -3.64163894998654      1.91581433720998     -0.00004932725851
  C          -3.39445393144157      0.54028653437543     -0.00001172808582
  C          -2.11109279710574     -0.20070068182196      0.00001458118905
  B          -4.67520871249728     -0.26349828250104     -0.00000181739252
  C          -4.62834541344561     -1.76210723607750      0.00001403796253
  C           1.68435692868852      0.16130516093020     -0.00001359906958
  H           2.86298383040374      1.93826507401569      0.00002292329420
  H           0.84935831472258      3.41333220560461      0.00010461509481
  H          -2.86819719451207      2.66311473260128     -0.00005541485273
  H           1.17084145240501     -2.42233251163057     -0.00006835697467
  H          -0.99583474027837     -3.45795035052656     -0.00004493994373
  H          -2.52020185241119     -4.43595258269098     -0.00001748198898
  H          -4.65761213826198     -5.57653574891084     -0.00000290924827
  H          -6.63136427694688     -4.36800742962121      0.00002991600676
  H          -8.00451700868973     -2.43702500653127      0.00005518422578
  H          -8.17154889847060     -0.01363109446253      0.00005379389879
  H          -7.05252468338797      2.29968829632908     -0.00005948464380
  H          -4.97695716744404      3.57907836915805     -0.00010348119178
  H          -1.32998754177986      2.50047824076233      0.00009560773540
  H           2.53499713915460     -0.51111212247634     -0.00004673502586
38
BNPAH_13009
  C           1.84650947022162      1.56204267700492     -0.00017423944417
  C           0.70715147459006      2.36765723465630     -0.00001757590522
  C          -0.55252633633731      1.82419108529367      0.00010049934967
  C          -0.81192713786202      0.42787079383868      0.00006205568420
  C           0.37245563811468     -0.36120576952815     -0.00003583117622
  C           0.28844004930243     -1.77463044341562     -0.00001428649534
  C          -0.90701799478288     -2.38328643586005      0.00006562874383
  C          -2.13761483629163     -1.66329490797187      0.00010675059224
  C          -3.35033552389876     -2.46411091402909      0.00010085948275
  C          -3.41918540914647     -3.85778870790676      0.00013267143897
  C          -4.64232898061549     -4.54561624536274      0.00005937975833
  C          -5.87692990365351     -3.90944822436529     -0.00004341522457
  C          -5.95257264218050     -2.51198970990513     -0.00006298078869
  C          -7.15085521885396     -1.75599078378404     -0.00013674180079
  C          -7.13622987649560     -0.38557569190363     -0.00015063753452
  C          -5.91842405206102      0.35033450980149     -0.00005791982572
  N          -5.97881950582193      1.70505345233597     -0.00003324033271
  C          -4.86378102036779      2.45050150387651      0.00007778975937
  C          -3.62314727101492      1.88802929608546      0.00014266815136
  C          -3.43117029466632      0.47811284483932      0.00008901130985
  C          -2.13038991775849     -0.23738151042951      0.00010828298358
  C          -4.64449322624932     -0.26134757604633      0.00001207602854
  B          -4.65547948031418     -1.75869984055989      0.00001426660658
  C           1.66036600976147      0.21116832456929     -0.00015632658769
  H           2.83868977949395      1.99507403611674     -0.00027556287496
  H           0.80579350146584      3.44684596208175      0.00001264862897
  H          -2.83373053559861      2.60469987572018      0.00024114143157
  H           1.20646749005035     -2.35173450741383     -0.00007165615890
  H          -0.94466133838840     -3.46182296809214      0.00006304931069
  H          -2.53159358158339     -4.48393121758209      0.00021859110488
  H          -4.61466523482699     -5.62937328618233      0.00008209299872
  H          -6.77881392460921     -4.51937360223667     -0.00009791965282
  H          -8.11796129621678     -2.25606557012941     -0.00019771383361
  H          -8.06829577866210      0.17023507870738     -0.00020809360063
  H          -6.88055888063624      2.15483173577876     -0.00007247112876
  H          -5.00326585104487      3.52258234606208      0.00011657375216
  H          -1.33445630910743      2.54934925484747      0.00024036047992
  H           2.51059094604576     -0.46182309891141     -0.00023978523083
38
BNPAH_13011
  C           1.79724873778186      1.60811801030144      0.00008355025082
  C           0.64974226133440      2.40078076930497      0.00009684454604
  C          -0.60450009619869      1.84390707752345      0.00002693588785
  C          -0.85109278276702      0.43962925271755     -0.00002116228267
  C           0.34567126442550     -0.33356043869992     -0.00005052822859
  C           0.28240987080702     -1.74909156087609     -0.00010747842060
  C          -0.90146331855897     -2.38200532427434     -0.00010382444877
  C          -2.14210679442258     -1.68234980628964     -0.00005645277179
  C          -3.35529055220006     -2.48430216640584     -0.00002573418149
  C          -3.42373078880004     -3.87574170754780      0.00000788254940
  C          -4.65089462500120     -4.56199114492775      0.00006026840263
  C          -5.88592978925887     -3.92775066903904      0.00007482240000
  C          -5.96387618914388     -2.52835072938723      0.00003509428719
  C          -7.15486088315291     -1.76058966028327      0.00003419717685
  C          -7.14025175896104     -0.38546889836503      0.00001002073352
  C          -5.93683712152285      0.37286210551665     -0.00001365027105
  C          -5.94494196400804      1.78572492167713     -0.00004181371899
  C          -4.75807803878032      2.43738484352034     -0.00005721691643
  N          -3.58144212793754      1.76292392462168     -0.00004481135087
  C          -3.46292310670797      0.41283982833280     -0.00002810064768
  C          -2.14484079921966     -0.26051274545428     -0.00005058447380
  C          -4.67722660331631     -0.28870845167381     -0.00001299555561
  B          -4.66538529053411     -1.78158984213340     -0.00000167693048
  C           1.62548085570510      0.25548259224094      0.00001719756772
  H           2.78372749955780      2.05317296634896      0.00013982576013
  H           0.73624578508766      3.48071955385343      0.00014248732359
  H          -2.75267356806600      2.31793339108124     -0.00007937635538
  H           1.21094322589027     -2.30875096027255     -0.00013318787110
  H          -0.92190484059395     -3.46147645082285     -0.00013428113008
  H          -2.53575677774704     -4.50228116841857      0.00000151245301
  H          -4.62324108007335     -5.64581526254490      0.00009237907617
  H          -6.78614965648288     -4.54012130396205      0.00011630022727
  H          -8.12372635615197     -2.25824928310747      0.00005282422412
  H          -8.07775806314933      0.15936002659092     -0.00000135837995
  H          -6.86900279209266      2.34883739823195     -0.00005946979999
  H          -4.67075475840501      3.51499882970910     -0.00008464909977
  H          -1.36327196699785      2.60518488594987      0.00010466530809
  H           2.48367198966249     -0.40706280303660      0.00001554466067
38
BNPAH_13432
  C          -7.20091408139109     -1.70212120604046      0.00003455476900
  C          -5.99152474604033     -2.29272584646215      0.00008531278210
  N          -4.81580791353024     -1.56688533331308      0.00004964207180
  C          -4.84785600757685     -0.18929214145971     -0.00001382235766
  C          -6.12677454512452      0.42762055635155     -0.00009763565348
  C          -7.27579494083567     -0.29001521820069     -0.00008329553426
  C          -3.61794264011457      0.51490887481287     -0.00000793208166
  C          -2.41655064636286     -0.22762475289795     -0.00002099076899
  C          -2.42445235911062     -1.64812116364627      0.00001253151206
  C          -3.63494990942948     -2.27431545560684      0.00008009829634
  C          -1.14570947230281     -2.40356510137982      0.00000103851591
  C          -1.16664585949849     -3.80390440611811     -0.00002683696095
  C          -0.01350543453037     -4.55606856417044     -0.00003777136028
  C           1.21758864235323     -3.90920970345984     -0.00004362429123
  C           1.26627778423228     -2.53420679993861     -0.00003428457552
  C           0.10973286374766     -1.74022681104399     -0.00000919629624
  C           0.18122442393684     -0.27488609990057     -0.00000513216591
  B          -1.10428298463386      0.49709491833628     -0.00002056954707
  C          -1.11274009332257      1.99453990469408      0.00000400241055
  C          -2.37632194290235      2.63822534191824      0.00001999776598
  C          -3.55996332108108      1.94520339039495      0.00001305419129
  C           0.13814483198935      2.63878594618452      0.00001591118331
  C           1.30325761313594      1.89570235933160      0.00002433990623
  C           1.33716344180778      0.48166267587253      0.00002128388362
  H          -8.08966459631842     -2.31707159255287      0.00006170592914
  H          -5.86037645780841     -3.36462095306432      0.00015913008904
  H          -6.15917544729528      1.50575930082544     -0.00019010228579
  H          -8.23651299533010      0.20745545261936     -0.00015276081114
  H          -3.77321083802007     -3.34307307935510      0.00015708001065
  H          -2.11001858366975     -4.33468730950420     -0.00003222752670
  H          -0.06992167371894     -5.63752487232590     -0.00005153955671
  H           2.13648091034985     -4.48375943860673     -0.00007193615526
  H           2.23132158831989     -2.04406743536900     -0.00004194556808
  H          -2.43187296810116      3.72583579929551      0.00004815309852
  H          -4.47883639171789      2.51582475106726      0.00005208216067
  H           0.21030734194478      3.72494029309411      0.00002868185706
  H           2.25246846027007      2.42095398167139      0.00003799008261
  H           2.32405994768011      0.02462873794699      0.00003501298104
38
BNPAH_13435
  C          -7.25939384469877     -1.65515088281595      0.00000816270983
  C          -6.09415816742651     -2.33338318763532     -0.00002298017101
  C          -4.84085128435070     -1.65162652032210     -0.00002578987977
  C          -4.86420202948047     -0.21070354823383     -0.00000479063586
  C          -6.09323691120369      0.40600900036320      0.00003882259749
  N          -7.23849600215179     -0.28921727645807      0.00004739032513
  C          -3.61688002004432      0.51542840013330     -0.00001584001369
  C          -2.42037064951004     -0.24349017455839      0.00002052310545
  C          -2.42025604031062     -1.66093395377255      0.00001702649883
  C          -3.64141727611062     -2.34143861132014     -0.00002760758746
  C          -1.12989190634026     -2.39620011577250      0.00002965113834
  C          -1.13590019825294     -3.79897987955849      0.00002892382553
  C           0.02181837827248     -4.54407523647864     -0.00001114420125
  C           1.24874925173994     -3.89050632982260     -0.00003249766897
  C           1.28812675958442     -2.51491381711981     -0.00000547047856
  C           0.12706036964869     -1.72951538787318      0.00002721416959
  C           0.19007334333133     -0.26549807586897      0.00004111951970
  B          -1.10609272181741      0.49139772327894      0.00003780514282
  C          -1.10883804828008      1.99191580246964      0.00000792386752
  C          -2.36027981515248      2.63106968538390     -0.00004406089675
  C          -3.55206650288927      1.92937991818837     -0.00006405653488
  C           0.14572987361051      2.64527359915669      0.00001128803114
  C           1.31007338148968      1.91300129597905      0.00003668403698
  C           1.34030923573636      0.49307952537145      0.00004101144138
  H          -8.23346579308829     -2.12142173700129      0.00001678491454
  H          -6.11180482143215     -3.41526910809637     -0.00003929725175
  H          -6.20095645104459      1.48094685187504      0.00008397313352
  H          -8.10962908218072      0.21320940694746      0.00006597642844
  H          -3.69447065641692     -3.42035815634982     -0.00005362928086
  H          -2.07320304899716     -4.33682840539313      0.00004131315070
  H          -0.02869132519238     -5.62589833853613     -0.00001109826254
  H           2.17164159237097     -4.45897764282076     -0.00007367522939
  H           2.25012282439288     -2.01877789425060     -0.00001012027545
  H          -2.41897092734918      3.71922483032515     -0.00008980110495
  H          -4.46866651407708      2.50797378875703     -0.00014069830911
  H           0.20805048952501      3.73228212257204     -0.00000753144524
  H           2.25931548726511      2.43773299917862      0.00003484323168
  H           2.32781905083110      0.03640933007878      0.00004365195891
38
BNPAH_13464
  C          -7.24274594940708     -1.72362946621011     -0.00000045863452
  C          -6.04589123396446     -2.36885175017282      0.00000142206073
  C          -4.82511752414062     -1.64586893661335      0.00000689477674
  C          -4.82745070390854     -0.22774580757849     -0.00000695571447
  C          -6.10139658419267      0.40477245074673     -0.00002142628178
  C          -7.26117958240367     -0.31262605090121     -0.00001944910327
  C          -3.58910944494038      0.49567340696049      0.00000013637943
  C          -2.36055410097921     -0.21604267453591      0.00000282192537
  C          -2.40453343428811     -1.65096998974692     -0.00002419170659
  C          -3.59946349738391     -2.32724071466084      0.00000691216675
  C          -1.13796064669306     -2.35025406414158     -0.00000013452562
  N          -1.13115222017791     -3.70048743768494      0.00000525904158
  C          -0.03764732597705     -4.47338441162751      0.00001054682742
  C           1.19039658204933     -3.87057357832316      0.00000535471883
  C           1.24892520947481     -2.48485845674330      0.00000019539198
  C           0.10651027673558     -1.68294156733309     -0.00001009766257
  C           0.12490139099153     -0.22874270237369     -0.00001935402386
  C          -1.11258402195636      0.47513981616752     -0.00001635952631
  B          -1.08990902606572      1.99188425845034      0.00000092480811
  C          -2.45672970804958      2.67955175935058      0.00002369594246
  C          -3.58698772433437      1.93409433810480      0.00002361992159
  C           0.26990380570780      2.65203642064381      0.00000511191982
  C           1.39645411971386      1.86346978314295     -0.00001073198869
  C           1.33046085266897      0.46186108580897     -0.00002050988523
  H          -8.17153058856582     -2.28050944790765     -0.00000183398069
  H          -6.00500243503714     -3.45325868087760      0.00001952352264
  H          -6.16623437102840      1.48233143594773     -0.00003304576473
  H          -8.21058817012534      0.20952602353346     -0.00002097111923
  H          -3.66412375741281     -3.41216187509032      0.00000877080638
  H          -2.03124380294695     -4.15582554911161      0.00000482081826
  H          -0.19692754645324     -5.54168310506383      0.00001793046726
  H           2.08855910721696     -4.47115636146751      0.00000814682179
  H           2.21992443646185     -2.01014497021384      0.00000694074534
  H          -2.58057957388104      3.76068021978092      0.00003568203089
  H          -4.54754235024730      2.43407712035245      0.00003826464315
  H           0.41677945627657      3.73020968709024      0.00001806394208
  H           2.38756565349254      2.31113777309409     -0.00000464455341
  H           2.27050343377098     -0.07631998079581     -0.00004387520762
38
BNPAH_13466
  C          -7.26170689948502     -1.69165297468232     -0.00002617159310
  C          -6.06968352586314     -2.34441428927600     -0.00007776235146
  C          -4.84274419249086     -1.62931600375352     -0.00004807871631
  C          -4.83587084485148     -0.21065034494579      0.00000614450791
  C          -6.10626094832936      0.43082813864267      0.00008512586835
  C          -7.26989738965265     -0.27953086717014      0.00008523613497
  C          -3.59270226021553      0.50086947191861     -0.00001543624304
  C          -2.37112332149651     -0.22139573100506     -0.00001313197343
  C          -2.41907765846687     -1.66013973232465     -0.00000675525529
  C          -3.62590235328299     -2.32086758851012     -0.00005630743636
  C          -1.17406764677066     -2.39707644901678     -0.00001294100154
  C          -1.13798542262290     -3.80581775939877      0.00000896512890
  C           0.03666510474701     -4.49008817357918      0.00003096242424
  N           1.19185740658764     -3.79695434424468      0.00004085011549
  C           1.22069261424209     -2.45954793060469      0.00003426206105
  C           0.06647706246058     -1.69748554994979      0.00002174028283
  C           0.10959042547657     -0.24164899387993     -0.00000504069999
  C          -1.12191890547367      0.46854655327289      0.00001435057417
  B          -1.08906287142321      1.98768794007425      0.00000030836766
  C          -2.45221807385729      2.68349240599260     -0.00002748371955
  C          -3.58310898162152      1.94168433677646     -0.00003174167321
  C           0.27357041060278      2.63838878346776     -0.00001250231801
  C           1.39484880771264      1.84175485774272     -0.00000735149744
  C           1.32066769051374      0.44100181374090     -0.00000738488817
  H          -8.19469446583650     -2.24155476340391     -0.00003575424675
  H          -6.03390459452180     -3.42879570488573     -0.00015308084203
  H          -6.16505980978106      1.50872771175358      0.00018425339849
  H          -8.21599825943903      0.24888262804575      0.00015253354571
  H          -3.67950243349301     -3.40198232804361     -0.00008133578942
  H          -2.04986916884683     -4.38175698910467     -0.00000885837243
  H           0.10976855907961     -5.56744341307297      0.00004490239047
  H           2.06590047275384     -4.29779290270681      0.00005754826917
  H           2.20419385902372     -2.01600627694986      0.00005421860956
  H          -2.57146325781932      3.76512362198075     -0.00005076031256
  H          -4.54210059648606      2.44476151798138     -0.00007346150422
  H           0.42787379959173      3.71551065208198     -0.00001910038634
  H           2.38903349725293      2.28320560307466     -0.00002175617733
  H           2.26148117208243     -0.09737592603799     -0.00002920468100
42
BNPAH_13750
  C          -2.96072935750833      0.37289885093219      0.00004961698589
  C          -2.81800360646247      1.79151363241054     -0.00017024812457
  C          -1.58193325340587      2.34632702716271     -0.00024043437280
  C          -0.39509644841910      1.54647555615418     -0.00009674252209
  C           0.85616627262166      2.16268010550741     -0.00016567622190
  C           2.05158086620220      1.43823519407194     -0.00003034817026
  B           1.94982343586060     -0.07463256860088      0.00013937425614
  C           3.29259736346803     -0.77269426005390      0.00015432511594
  C           4.47635310648241     -0.08931298029846      0.00006829309528
  C           4.58290950524750      1.32956237782835      0.00000518161441
  N           5.83659241711157      2.03234769124407      0.00001698751852
  C           5.79928727358866      3.41320276737548      0.00007806528038
  C           6.97061773811743      4.22963908661714      0.00022073848965
  C           8.19048430710502      3.70204447771815      0.00025035358685
  C           8.31091562623866      2.28370900357722      0.00009334952646
  C           9.61496743766942      1.76757971013886      0.00004609649348
  C           9.86396085359355      0.42363852149837     -0.00014431204385
  C           8.76581304759995     -0.42077173859343     -0.00029731621743
  C           7.47586733206413      0.06540095623917     -0.00023698404508
  C           7.17137914068318      1.43810304675175     -0.00003043255244
  C           4.60476587389099      4.11631944259116      0.00001442444137
  C           3.41324601082125      3.46936009534376     -0.00006126355598
  C           3.34924033730372      2.07942734866007     -0.00003533013691
  C           0.59096743293083     -0.70195763296584      0.00022806455609
  C          -0.53354627337871      0.11181432796594      0.00011296707956
  C          -1.86648722233426     -0.42419444193158      0.00018695507521
  H          -3.95322139023372     -0.06303838095696      0.00010864322223
  H          -3.70143399748459      2.41897257452131     -0.00027264154586
  H          -1.46981749566871      3.42616357611149     -0.00040516802366
  H           0.82670241567969      3.24925679726716     -0.00032133867416
  H           3.39407103054517     -1.85660218484280      0.00022385995961
  H           6.74000512170497     -0.69853638700677     -0.00037406703666
  H           6.80689552646782      5.29785613159561      0.00030306383293
  H           9.08410658141956      4.31244605862216      0.00035647270891
  H          10.43118060013605      2.47992586246551      0.00016117635516
  H          10.87441797951900      0.03672848621830     -0.00019232140766
  H           8.89959670599148     -1.49516930730136     -0.00047940274946
  H           5.33686025400393     -0.70542097749980      0.00007267509821
  H           4.66046366893783      5.19531854066773      0.00004704196703
  H           2.50077792641705      4.04580067831568     -0.00011678246315
  H           0.41702083426017     -1.77673754176200      0.00037622152889
  H          -1.97479697878777     -1.50367052375964      0.00035786207574
42
BNPAH_14454
  C          -2.77965351100200     -3.24502139039120     -0.00045074252587
  C          -2.70162266262174     -1.89266078707681     -0.00007517454069
  C          -1.43958371331898     -1.21063113078392     -0.00000432306912
  C          -0.24691392782899     -2.00351022514530     -0.00025855932463
  C          -0.37891128700899     -3.42721765630929     -0.00067307354943
  C          -1.59239765255728     -4.03271592152865     -0.00077084927436
  C           1.03371948429850     -1.43602288490862     -0.00016202395748
  C           1.30344033354098     -0.05905094550351      0.00010839445196
  B           0.02702246788637      0.81534093586222      0.00024027051329
  C           0.16863166041739      2.33078255156108      0.00028362086373
  C           1.40637337148139      2.87719767299519      0.00016472773794
  C           2.57738884736792      2.07416756940479      0.00015326783854
  C           3.79319215815281      2.78129108776942      0.00028383831573
  C           4.98605678421992      2.17010781362624      0.00025962034839
  N           5.07220052738032      0.80377161104967      0.00008519984916
  C           6.37237174994041      0.22353561424678     -0.00017723469439
  C           7.54033536880207      1.00207546074265     -0.00137474223972
  C           8.77865829610405      0.40407517689988     -0.00126467562990
  C           8.91082722565403     -0.98454769172358     -0.00007393382598
  C           7.77902801247198     -1.75525925882614      0.00082447154755
  C           6.50577159337656     -1.16690721847350      0.00071839207517
  C           5.32211545077815     -1.95551450124331      0.00130337628969
  C           4.11614013338863     -1.37288956449787      0.00088024403564
  C           3.91176240142539      0.04455631562271      0.00028408798205
  C           2.60145290943992      0.63594627235103      0.00018147001477
  C          -1.32192421647955      0.16904587451263      0.00024440783313
  H          -3.74548652429661     -3.73723706033574     -0.00051409647978
  H          -3.60331994749712     -1.28944243155950      0.00015100014298
  H           0.52630986218745     -4.02737477284709     -0.00090829648798
  H          -1.66564534447691     -5.11375279523008     -0.00110971279164
  H           3.25253513211737     -1.99531425743653      0.00119002383907
  H          -0.68835729936319      3.00060935420765      0.00034572379706
  H           1.56524264011859      3.95262104744123      0.00015148978591
  H           3.77061875057140      3.86310753919824      0.00048722064451
  H           5.90015648456983      2.72834015023293      0.00064918050301
  H           7.51921294679911      2.07866709565388     -0.00258580303403
  H           9.66108123741241      1.03142023900455     -0.00217155314573
  H           9.89152476340178     -1.44212368418609      0.00003635366590
  H           7.84401304345588     -2.83687058047495      0.00160964719845
  H           5.40657755347576     -3.03536625014379      0.00197214878222
  H           1.77930939760752     -2.21284363209514     -0.00041040317388
  H          -2.24577750139257      0.74564325833782      0.00037901968876
42
BNPAH_15060
  C          -2.47659869299006     -0.25619529019556     -0.50180596663988
  C          -2.39998548307305      1.10641916748330     -0.92172656293368
  C          -1.22074004820633      1.76741970988357     -0.84583315581494
  C          -0.03328705984323      1.14177980127433     -0.34566234546140
  C           1.15252970649014      1.86315767947048     -0.26969609477672
  C           2.35520702729883      1.30443331507022      0.19025219820100
  B           2.35827476578534     -0.19065784357536      0.53556043479267
  C           3.72830068296184     -0.81324954171780      0.82852204219572
  C           4.84574439730234     -0.06867293329901      0.65180344495653
  C           4.80158194481423      1.33217885526430      0.33306172377194
  C           3.58046299229910      2.03641661258305      0.26572924608986
  C           3.65085029906820      3.49285962191645      0.36618647750765
  C           2.55533837231650      4.23980364455736      0.85012966849059
  C           2.60367630133501      5.60496787768979      0.95528756185203
  C           3.75858108729729      6.30645782981701      0.58978689997003
  C           4.86169149674009      5.60818158608148      0.18313590699535
  C           4.84064466331076      4.20160947413966      0.08848948009335
  C           6.02763974765222      3.45225148533481     -0.21267145300689
  C           7.21382384926948      4.05088628197691     -0.66504013932910
  C           8.33795905945772      3.31722626124410     -0.89216371181135
  N           8.28785475432093      1.98376400393859     -0.67871088425373
  C           7.18787477603972      1.35547120961710     -0.26677713717021
  C           6.00100121415377      2.03768449696539     -0.01039423213442
  C           1.04164500303314     -0.91018860733539      0.47992744125608
  C          -0.09808187652624     -0.24287014135897      0.05904310517578
  C          -1.37743541310316     -0.89436927494939     -0.03755865322828
  H          -3.42485048083954     -0.77862301113437     -0.56194869133547
  H          -3.28620581378104      1.60201781532010     -1.30011309693427
  H          -1.15476635202463      2.80407849109638     -1.16222144326606
  H           1.67487677958423      3.71043953173290      1.18056038773212
  H           3.86395464421137     -1.85151093285847      1.12386492820118
  H           5.82071754429156     -0.52225649628763      0.81040463127064
  H           1.11767043761704      2.87775939733107     -0.65734984024560
  H           1.74610106460129      6.14023644140965      1.34464204671498
  H           3.79386217964030      7.38566123587522      0.66918293869569
  H           5.77199198166414      6.15333558916278     -0.02907591906502
  H           7.25641653680602      5.11274683191034     -0.85523719465987
  H           9.27324010824817      3.72354985656596     -1.24536634121848
  H           9.11043177683792      1.43099082088403     -0.86174218046950
  H           7.26937736747031      0.28367956295695     -0.17544115400808
  H           0.92364214211093     -1.96661985097743      0.71776626520105
  H          -1.43718248364275     -1.93227956486398      0.27319836859871
42
BNPAH_15110
  C          -2.53091576113970     -0.44950363679248     -0.00076395536710
  C          -2.60631094843240      0.97505076567209     -0.00113153913517
  C          -1.47152643165295      1.71779026611860     -0.00091492066499
  C          -0.18627800526718      1.09495186259695     -0.00032134360696
  C           0.98668473066964      1.84261824451003     -0.00010810830301
  C           2.28733830311741      1.31603633057677      0.00035655801101
  C           2.33505371950283     -0.14051505277422      0.00072770465998
  C           3.54371249186747     -0.86679324223538      0.00129629150084
  B           4.81630510336567     -0.17828130299887      0.00123785888216
  C           4.76145148943902      1.36287426332161      0.00051048910118
  C           3.54868744940195      2.09294466027355      0.00036726864424
  C           3.64820177266385      3.57611274931972      0.00033703583771
  C           2.54965111212111      4.47314168825825      0.00061510418358
  C           2.65994538725312      5.83882796102049      0.00091573132674
  C           3.90680074847076      6.45704451735513      0.00093387405339
  C           5.00486856627133      5.64972514717160      0.00053654791539
  C           4.91174466487378      4.24153642622805      0.00021393128249
  C           6.12731016172432      3.48227102455272     -0.00026087504777
  C           7.41135091680172      4.07397028768130     -0.00095112575410
  C           8.53589533331357      3.31769481382385     -0.00131174642045
  N           8.40579663155825      1.97096740537654     -0.00107594513054
  C           7.22271264286107      1.36554601588692     -0.00052658229807
  C           6.02310223259161      2.07567311863729     -0.00005086066140
  C           1.14315782393123     -0.88450990547662      0.00055724269647
  C          -0.11460101738303     -0.32138240987120      0.00002268816975
  C          -1.32934269050115     -1.07633834514942     -0.00021714326108
  H          -3.44716905034674     -1.02848128928759     -0.00093594779107
  H          -3.57627855943427      1.45761159139928     -0.00159883962436
  H          -1.52559470235706      2.80197655209117     -0.00121114477154
  H           1.54861532209136      4.11572975843521      0.00061439194470
  H           3.43770742330890     -1.94832760052508      0.00166944219564
  H           5.84847775705944     -0.80412083361795      0.00178606631591
  H           0.78496126560162      2.88948544038108     -0.00032531979144
  H           1.75390973392184      6.43307150830494      0.00117201259500
  H           4.00492665501905      7.53482210672370      0.00123917669647
  H           5.97665126620654      6.12021662381128      0.00057140523279
  H           7.53835065514399      5.14429726000428     -0.00125319596394
  H           9.53888746215497      3.71683177371160     -0.00180795877378
  H           9.23428006465436      1.39706949603720     -0.00136242888579
  H           7.22615303751394      0.28689771734284     -0.00045793200221
  H           1.23735501417876     -1.96542874483120      0.00085836167969
  H          -1.26819877214003     -2.15913401306405      0.00004773032967
42
BNPAH_15399
  C          -2.48348603433241     -0.58350803892385      0.01789456931832
  C          -2.61457185034572      0.82526177207643     -0.14663690430441
  C          -1.52080715261424      1.62532531381153     -0.19323134050525
  C          -0.20959233929869      1.07295501421779     -0.07683685338646
  C           0.92005587217314      1.89106626078596     -0.12124840909190
  C           2.22770553474970      1.41568285917604     -0.01676186532683
  C           2.31366263225320     -0.01573731585218      0.12555490582164
  C           3.57304796435552     -0.61901859838039      0.21644648479701
  N           4.63628524332287      0.11674074685356      0.12275220449885
  C           4.66563416464790      1.48326014785527     -0.03517272692213
  C           3.46869904433254      2.20219969843784     -0.04437942744669
  C           3.61678825302350      3.65552252175552     -0.03517238459388
  C           2.53720375033623      4.56842290164967     -0.09925123209283
  C           2.68900605794478      5.92335787350776      0.00120742360423
  C           3.96554884047752      6.45869095876322      0.17870679368249
  C           5.04040730784720      5.61957181247975      0.21035660004753
  C           4.92665298616530      4.21329464351761      0.08431150502011
  C           6.12360737059926      3.40902313763579      0.03902966517522
  C           7.42887666644302      3.96837244109582      0.10474552324718
  C           8.57181285966833      3.22739217760612     -0.00875144163741
  B           8.50694374953716      1.72944449011173     -0.26009462831768
  C           7.12103029629771      1.18031734676053     -0.30712966424897
  C           6.00513684111721      2.01180480354758     -0.12714381264221
  C           1.19529397308826     -0.84538258633248      0.18216647776029
  C          -0.08507358573395     -0.33434776728237      0.08545535410644
  C          -1.25703632075418     -1.14753553682733      0.13036819340765
  H          -3.37389400818575     -1.19878643908462      0.05062167695260
  H          -3.60400265147697      1.25695730888008     -0.23486541986472
  H          -1.62589501400301      2.69669069525699     -0.31789045781229
  H           1.53339111300754      4.23315259023354     -0.24889353606405
  H           3.70301097532213     -1.68262005562543      0.36810074379525
  H           5.56348208213842     -0.29459445744344      0.19465725603175
  H           0.70912661187776      2.93071593075435     -0.25781365766576
  H           1.81932767474181      6.56594770665158     -0.05539910888332
  H           4.10813222522405      7.52803287595087      0.27751538798444
  H           6.01989280634671      6.05488890022061      0.32721325848543
  H           7.52588871409400      5.03744409654676      0.24648056345358
  H           9.50681040566081      3.77921460799536      0.06124489195498
  H           9.48468232806091      1.04424654397139     -0.42483445928755
  H           6.97336900769929      0.12905709133109     -0.56420139826711
  H           1.34312171962660     -1.91409573435507      0.29636571363930
  H          -1.14544611543552     -2.21845873933106      0.25451453557718
42
BNPAH_16283
  C           7.79047527712264      1.75282813258074     -0.00010754457840
  C           7.84499855979360      0.31612795956175      0.00051135816990
  C           6.72917324414879     -0.45873786484497      0.00090922922894
  B           5.36055793839884      0.23675756543341      0.00058655958427
  C           3.99665001599913     -0.38241843445845      0.00099826903009
  C           2.84452145274238      0.40544631665396      0.00036652438690
  C           2.91187014693509      1.82976247157473     -0.00017075724318
  C           4.16518530926729      2.45289970277085     -0.00032956067774
  C           5.36634971631457      1.76061004063394     -0.00013465011387
  C           6.62262155506302      2.44595553391304     -0.00040124104620
  C           1.67308301201167      2.59285031121930     -0.00021156762573
  C           1.73870801000827      4.00323501977959     -0.00039502713748
  C           0.63184306306276      4.80462443503996     -0.00023743402343
  C          -0.62778431356359      4.21531598263869      0.00015021934015
  C          -0.72785405958924      2.84937333434729      0.00033264772820
  C           0.38703207624816      1.98270055776575      0.00009923377239
  C           0.28868538383358      0.51185900901866      0.00001363203609
  C           1.51727952010502     -0.17169419231004     -0.00030484065364
  N           1.51342161936689     -1.53747113273847     -0.00132297269782
  C           0.46091950683605     -2.30774094583299     -0.00130126356740
  C          -0.79987073204107     -1.73232341001461     -0.00041118470357
  C          -1.91918966682809     -2.60341460902178     -0.00022774405486
  C          -3.18043956855260     -2.10769968757539      0.00031468691682
  C          -3.33394543022685     -0.70961601915203      0.00065374888754
  C          -2.26691601270089      0.14236285589009      0.00051393907388
  C          -0.91402971415466     -0.30674011708144      0.00001323777422
  H           8.72965273449702      2.29680512126044     -0.00034155937251
  H           8.83495196418830     -0.13487813038782      0.00065366317699
  H           6.86726253584750     -1.53878431235221      0.00134437058385
  H           3.94240037676066     -1.47387853254379      0.00254906017873
  H           4.21953984788950      3.53536818921632     -0.00059980644386
  H           6.64659398274161      3.53440716967496     -0.00084030979615
  H           2.70417261866823      4.48188852393552     -0.00064401190170
  H           0.74175264219392      5.88225990546179     -0.00038259607953
  H          -1.52723269665700      4.81800566010976      0.00030271575559
  H          -2.51378751708505      1.18084321215658      0.00081158891306
  H           2.44066788603810     -1.94766880037669     -0.00228321178838
  H           0.62049447315950     -3.37787792452559     -0.00210597910551
  H          -1.73664747918669     -3.67180193858793     -0.00053365325594
  H          -4.04378358601233     -2.75965930013027      0.00047102444824
  H          -4.33024836452523     -0.28414377751059      0.00104266283621
  H          -1.72684532811882      2.47430411880792      0.00064954404484
42
BNPAH_16290
  C           7.71570655338117      1.84432355072605     -0.57739125540883
  C           7.85256627619744      0.45064252470939     -0.25955580728930
  C           6.78963849857373     -0.33882112099877      0.05040657248365
  B           5.38963720109211      0.28894607994815      0.06274924772044
  C           4.06736653910502     -0.38133392089635      0.32987157745487
  C           2.88297715021451      0.33728435503849      0.27232616382265
  C           2.87763452301017      1.75466431757363      0.00583590070038
  C           4.07628036180298      2.41003706784342     -0.28107974527742
  C           5.31024639842103      1.77322199598740     -0.28090826452605
  C           6.51406387999677      2.47921642931017     -0.59138125189867
  C           1.63644896764602      2.48648106268741      0.13110043987846
  C           1.61269047298728      3.89711205816528      0.23497351830878
  C           0.46273527620623      4.59318136009166      0.48694396802299
  C          -0.74555179092306      3.91464173652348      0.69068817331331
  C          -0.76886683483366      2.55335947695013      0.56653188281488
  C           0.39184915880325      1.82029710004584      0.23016817508524
  C           0.40729438080982      0.38018364545750      0.15527337507598
  C           1.59208998689211     -0.32670511464984      0.37010980694905
  C           1.47257239630980     -1.69586284887486      0.69344250407366
  C           0.27055882011470     -2.33310675078175      0.69096570392816
  C          -0.86478459476492     -1.67608111528152      0.20795830930562
  C          -2.09633159548786     -2.33987623917580     -0.00180323287361
  C          -3.13620009026357     -1.72069345429904     -0.61207065335850
  C          -2.94666912528112     -0.40269384364446     -1.08195633171479
  C          -1.78559678309395      0.23999336408116     -0.83687428507427
  N          -0.75775075260108     -0.34485812864069     -0.11911729027429
  H           8.61472183914475      2.40447252725531     -0.81418652467751
  H           8.86084365128930      0.04204623761821     -0.27770557030390
  H           6.99042691885733     -1.38484836132911      0.27588675137960
  H           4.01305141417001     -1.45149260245514      0.51004462358515
  H           4.04543978958191      3.46776156371303     -0.52866048547451
  H           6.47245254561897      3.53886084996397     -0.83921854581908
  H           2.54219831944775      4.44198614692450      0.16326533718899
  H           0.49900911956324      5.67242822860074      0.57495733309334
  H          -1.64194399758902      4.45362155871045      0.96921456776370
  H          -1.57604885762877      1.22628168349064     -1.21355984590685
  H           2.35892724060381     -2.23914280841408      0.98652525647011
  H           0.17644656134867     -3.36810075879672      0.98904057621650
  H          -2.15902794948865     -3.37039010202470      0.32122034568557
  H          -4.07361188030794     -2.23522334614913     -0.77541634396702
  H          -3.70669298840535      0.10370467788468     -1.65997960381367
  H          -1.69450700052102      2.03451691711126      0.78136292733720
42
BNPAH_16485
  C           7.77947992394915      1.65974176871820     -0.00259567597461
  C           7.73308016676928      0.23589134240826     -0.02065205192089
  C           6.53962270343203     -0.40776754632985     -0.02559531500568
  C           5.31723320316485      0.32801791168463     -0.01249792130525
  C           4.07430978360458     -0.28841857763716     -0.01486664935215
  C           2.88186887358195      0.43610855647439     -0.00209656654773
  C           2.91269533124414      1.85733450453312      0.00830790292074
  C           4.17062048891370      2.46464045776823      0.01352761470047
  C           5.35960660148679      1.74828641341030      0.00446257593544
  C           6.63650478522918      2.38975388004367      0.00925406045114
  C           1.68905855201164      2.63085470999428      0.01004171214390
  B           1.77069123523915      4.16011817873377      0.02302918297221
  C           0.49228657265251      4.92337916472007      0.01276242971350
  C          -0.67827064106185      4.20232872529097     -0.00841022358588
  C          -0.72416274378027      2.81011326504027     -0.01645701996489
  C           0.41111991148333      1.97586179860900     -0.00593422850774
  C           0.36573377893455      0.48628626868809     -0.00409821325854
  C           1.59470214902552     -0.22068811964005      0.00295802481815
  C           1.59207555944979     -1.63488155670895      0.02150171604101
  C           0.46798206333080     -2.35346097007522      0.02824754405460
  N          -0.74520317525572     -1.72118599448881      0.01324612216228
  C          -1.84654457333980     -2.55057816950100      0.01781686129482
  C          -3.10512406400261     -2.08096245384050      0.00269860724889
  C          -3.26848419176645     -0.68565854251821     -0.02035109396331
  C          -2.18129102574816      0.12623111080811     -0.02381039134448
  C          -0.83373374583551     -0.33521946455591     -0.00472125588777
  H           8.74162078245248      2.15807236904842      0.00130433653223
  H           8.65853532163598     -0.32704879596003     -0.03003278574337
  H           6.49651571128685     -1.49179965612836     -0.03932379798174
  H           4.08571497996057     -1.36905377880576     -0.03131426968977
  H           4.22178997043715      3.54195480440176      0.02313379227891
  H           6.67056117462956      3.47310369696172      0.02252108643383
  H           2.81702166305289      4.75147677563497      0.04015199239408
  H           0.42299005609351      6.00775896979959      0.01933355703629
  H          -1.64198773856339      4.70962357988671     -0.01894140342782
  H          -2.36255786214588      1.17346910405600     -0.04427983851020
  H           2.51717832962951     -2.18417983999738      0.03564907990955
  H           0.44265437108390     -3.43186375163252      0.04500521589113
  H          -1.60984108117838     -3.60381859658352      0.03372669781480
  H          -3.94055515563273     -2.76593473670503      0.00679316941355
  H          -4.25747539883031     -0.24706537742572     -0.03615233497116
  H          -1.72573064662434      2.44921957181942     -0.03334224521853
42
BNPAH_16546
  C           7.66203423727056      1.60278549378834     -0.56599136765788
  C           7.59911764391939      0.19393896556067     -0.36182799230956
  C           6.41326184828093     -0.41255143578145     -0.11368570970570
  C           5.22080821114984      0.36752172997102     -0.04697900861599
  C           3.98590203966038     -0.20331284725753      0.17280421892034
  N           2.84642211922421      0.50739281851547      0.25720639203405
  C           2.86525517207450      1.88208147481624      0.07496750632679
  C           4.08515811041427      2.47410939513647     -0.20759490635075
  C           5.27887672804836      1.76807225595059     -0.25375479612862
  C           6.54272345532586      2.36851278300048     -0.51934667297125
  C           1.62751977971062      2.62509297276703      0.19360699589788
  C           1.69673531987068      4.00733446263543      0.35763822671206
  C           0.54761194349268      4.78478817590689      0.50268110145516
  C          -0.71521115155168      4.23313452752222      0.52754502794551
  B          -0.89136849245364      2.74833993031703      0.39101120717867
  C           0.38076580541553      1.93441507949986      0.15264738052309
  C           0.43207501034435      0.49641486338575      0.12505775744272
  C           1.61256215317394     -0.18119957571219      0.41140041572313
  C           1.61030614091724     -1.52538031275357      0.86805769649614
  C           0.46694476502615     -2.24685956903929      0.85950732590316
  C          -0.71206170809518     -1.70443059267131      0.27472835336285
  C          -1.84752859243731     -2.51018063769605      0.05893130085763
  C          -2.93597745274462     -2.01950384549299     -0.60850525822529
  C          -2.91229006826439     -0.70802494273290     -1.10329162911611
  C          -1.83598500784790      0.10563771863843     -0.86499042726310
  C          -0.72242137413659     -0.35141430440862     -0.13069436524573
  H           8.62278778013718      2.06274474648818     -0.76212128309364
  H           8.51026144581077     -0.38889080409924     -0.40777107482251
  H           6.35420882781665     -1.48356091699002      0.04014338683333
  H           3.88806975507449     -1.27356624728572      0.23710971192975
  H           4.09334297062514      3.53386913842493     -0.41064540362357
  H           6.59242403312126      3.43897502918628     -0.67743786216555
  H           2.65516647348686      4.50238045478364      0.43252649368623
  H           0.68658188948705      5.85555897480080      0.63451564359657
  H          -1.54817472651940      4.91301244584863      0.68694079424097
  H          -1.82125268998440      1.10578579556241     -1.26808650330546
  H           2.49915962901278     -1.96433702267843      1.29944263268385
  H           0.45037129376560     -3.25332472509325      1.25907030573285
  H          -1.83089737082983     -3.53673197122511      0.40753991669629
  H          -3.79938262161375     -2.65026265303467     -0.78291870277083
  H          -3.74738103443096     -0.33453873163697     -1.68301352347161
  H          -1.96423129074769      2.23621490308248      0.54357669466409
42
BNPAH_16654
  C           7.80758747419430      1.78074882236985     -0.00804107730632
  C           7.76237314010412      0.35900981449235     -0.00462119778509
  C           6.57318799218485     -0.29574964153481     -0.00077113049218
  C           5.34466807502063      0.42847138456376      0.00001595251290
  C           4.10958630946335     -0.21680300068579      0.00313190639731
  C           2.89489956718508      0.46101375282516      0.00374573629916
  C           2.96150712018410      1.88074497327585      0.00175640657221
  C           4.18749496727139      2.53738236237211     -0.00211863277686
  C           5.39338320147023      1.84624428318457     -0.00313520390079
  C           6.65836416238583      2.50257837192741     -0.00736833382451
  C           1.71532752908535      2.60201645511299      0.00365939727316
  C           1.73597773963249      4.00955374462616      0.00861229479045
  C           0.60125626687582      4.75119060388049      0.00838339810333
  N          -0.56338341735944      4.08628437983710      0.00312099410714
  C          -0.64084926102762      2.75199984275686     -0.00018664860762
  C           0.46208124425335      1.89847990921380      0.00109904275092
  C           0.38072446331709      0.42524585712845      0.00098199668357
  C           1.61999925716369     -0.26688096124752      0.00527498987125
  B           1.67642134402702     -1.79992855325980      0.01079195806317
  C           0.39207283646787     -2.49112123018051      0.00842916988810
  C          -0.81511736800525     -1.77999382904853      0.00185804748619
  C          -2.01676152795402     -2.55005313758301     -0.00095207617130
  C          -3.25555743653850     -1.99791293234069     -0.00689819848272
  C          -3.34204498954849     -0.59924008574161     -0.01037424472714
  C          -2.20949473222268      0.16887844394387     -0.00776839134789
  C          -0.87490747457150     -0.34101384796010     -0.00158963299119
  H           8.76740709914013      2.28277496434312     -0.01116461336159
  H           8.69016009551547     -0.20036177718007     -0.00517077567828
  H           6.53552833770791     -1.37883818839585      0.00174622222051
  H           4.10159296049534     -1.29437549711782      0.00459019615410
  H           4.24915017430117      3.61708133109534     -0.00567601845067
  H           6.68646131129149      3.58688504971777     -0.00996808743485
  H           2.67369530009288      4.53912276337992      0.01335717250459
  H           0.56692261727859      5.83013905489263      0.01214959035266
  H          -1.42814481976486      4.60324253770595      0.00213122731019
  H          -2.45101785851279      1.20984610229331     -0.01123317410523
  H           2.69805575497610     -2.42924640496690      0.01701342797564
  H           0.29551280399551     -3.57426786105393      0.01124391041447
  H          -1.89920665777726     -3.62783342092851      0.00193680358107
  H          -4.14745845583257     -2.61308446776465     -0.00891120838004
  H          -4.30786069999988     -0.10770124233735     -0.01522035608868
  H          -1.64730244596629      2.40551227438862     -0.00385883939912
42
BNPAH_16702
  C           7.79250088684524      1.79080451303042     -0.00024977849062
  C           7.75142630972867      0.36909083196976     -0.00018042905930
  C           6.56491818437595     -0.28972313003247     -0.00003170643353
  C           5.33282671799480      0.42926901696266      0.00002931976017
  C           4.10119872776524     -0.22215303406937      0.00009237930553
  C           2.87621573063156      0.44399489362728      0.00015484574040
  C           2.94800862455112      1.86429366643438      0.00010623658489
  C           4.16742845791382      2.52768116793467      0.00003861029896
  C           5.37927772002627      1.84698175129022     -0.00002225712349
  C           6.64068619008521      2.50822500138020     -0.00017278530922
  C           1.69372921278245      2.56724904793787      0.00009937756687
  N           1.73854107864139      3.91858153119051      0.00014003476112
  C           0.68756439991654      4.74101107800614      0.00014274537960
  C          -0.55430528791826      4.17454212740004      0.00008029932446
  C          -0.65648810491522      2.79357315199108     -0.00000035303143
  C           0.43653727599634      1.91131332095202      0.00007563010770
  C           0.33917633154665      0.44284382785174      0.00005391627345
  C           1.58875349654862     -0.25203696902269      0.00019360997623
  C           1.64642524688115     -1.67146523588996      0.00033305646713
  C           0.55122942500665     -2.47252273288532      0.00025538134686
  B          -0.81851350818266     -1.84587836617005      0.00002207327860
  C          -2.09440408841546     -2.68220506472703     -0.00012467520831
  C          -3.29956479321562     -2.05610926080573     -0.00025605482717
  C          -3.35389573192831     -0.63984979488516     -0.00025012462111
  C          -2.24939842531467      0.17062209504206     -0.00014405527328
  C          -0.89723901975436     -0.31247690835401     -0.00001769253583
  H           8.75038092310320      2.29605449626884     -0.00036519169798
  H           8.68069909498700     -0.18751806427974     -0.00024087498372
  H           6.53383976243195     -1.37312151411780      0.00002414504230
  H           4.13689464352310     -1.29933536779902      0.00010741786023
  H           4.24099267785850      3.61127704901139     -0.00004423665775
  H           6.66577574165219      3.59267258384622     -0.00021534196342
  H           2.65608056083913      4.33438711088294      0.00018035296325
  H           0.89206883412521      5.80159349841583      0.00018761657692
  H          -1.44015371515835      4.79291305023400      0.00006856585796
  H          -2.53820182053961      1.20711848392464     -0.00011797986290
  H           2.61846238542392     -2.14216984521646      0.00053960858581
  H           0.71945787037427     -3.54762392705414      0.00038752851514
  H          -2.07545187769330     -3.77043727730552     -0.00011480032335
  H          -4.23779789851926     -2.60603982792140     -0.00036231674211
  H          -4.32730203193851     -0.15917626757638     -0.00034488284975
  H          -1.64608820806254      2.39379129252733     -0.00005621457928
42
BNPAH_16822
  C           7.77112759188500      1.76492530985618      0.00004104244245
  C           7.74049560905422      0.33655761819639     -0.00003474405236
  C           6.56746178431458     -0.34106508082774     -0.00012577428770
  C           5.33241400165210      0.37462368975080     -0.00008922521010
  C           4.09364604290501     -0.23525615189510     -0.00011026097634
  C           2.88474782155674      0.46056222726243     -0.00002880142912
  N           2.96602264817082      1.84467415413032      0.00000355209195
  C           4.16793412500993      2.45691047580259      0.00002542397364
  C           5.36731987024372      1.79118019150239     -0.00000494696911
  C           6.62096079662713      2.47706741665704      0.00003814900191
  C           1.77281903366001      2.63175858424831      0.00000111259465
  C           1.85366807459692      4.03320838508295      0.00000895003414
  C           0.72093021370981      4.80364740980909      0.00000541096901
  C          -0.52531974611706      4.18049101757807     -0.00000212865474
  C          -0.60058663906836      2.81518749931788     -0.00001431384371
  C           0.53329679978833      1.97484363275540      0.00000590922212
  C           0.39302516420377      0.52590855264236      0.00001543007549
  C           1.59975604276915     -0.20807819049124      0.00003458078467
  C           1.61201356452134     -1.62884124379107      0.00010605026869
  C           0.46557604562128     -2.36850983300041      0.00011967861081
  C          -0.80967306472133     -1.78444486848179      0.00003931862586
  C          -1.94601632513678     -2.63510063636750      0.00001031680097
  C          -3.21073450403595     -2.13047738552056     -0.00003337117212
  C          -3.43351615626629     -0.72933899309238     -0.00004839371161
  C          -2.42578263004750      0.19492760401893     -0.00003074207994
  B          -0.95534417255189     -0.26579801357532      0.00001090265271
  H           8.72709557813616      2.27282846939644      0.00009335223123
  H           8.67740503844312     -0.20687360497108     -0.00002877789120
  H           6.54683427096046     -1.42397544917677     -0.00018308476169
  H           4.06280916680953     -1.31049139521083     -0.00022653605288
  H           4.16670028330649      3.53025302901820      0.00008979737621
  H           6.63295515032675      3.56062530212602      0.00008552465193
  H           2.79407157706315      4.55962612220362     -0.00001409475340
  H           0.80648149862659      5.88261649013489      0.00000393503380
  H          -1.43377217010416      4.76999917793498     -0.00001270984699
  H          -2.79823274392601      1.21342845739809     -0.00005035404517
  H           2.54162420949443     -2.17453548095077      0.00024140003245
  H           0.55807254810703     -3.45358744886396      0.00018557241431
  H          -1.79968271870547     -3.71390914438389      0.00002461056845
  H          -4.06469305884222     -2.79912502550092     -0.00006674661141
  H          -4.46758836934471     -0.39204988014443     -0.00008241837256
  H          -1.56403025269584      2.34565000942241     -0.00000459573532
42
BNPAH_16952
  C           2.33225092747373     -0.16637046087825     -0.50427036940213
  C           2.25682241564240     -1.34258554064936      0.17758054353124
  C           1.03260948453886     -2.05613132733045      0.33349978395597
  C           1.00819654635948     -3.32757262922233      0.94180345009876
  B          -0.20691604481688     -4.16400693318556      0.93235961237166
  C          -1.45886397862162     -3.48307331827605      0.37379438468203
  C          -2.71356948859346     -4.17246312220847      0.12932111604620
  C          -2.79329098165748     -5.57822947535043      0.15157585984207
  C          -3.91694798347356     -6.24602081177949     -0.26478881548114
  C          -5.01510615517268     -5.53585921069276     -0.75386094003163
  C          -4.98720736517030     -4.16241680437123     -0.76076018149025
  C          -3.86150994923584     -3.48922391056815     -0.27767119617765
  N          -3.85805099660423     -2.07081541073160     -0.15648409057256
  C          -5.03355347642876     -1.42041217605142     -0.07384515595675
  C          -5.13068174948647     -0.06073386895602      0.09980591848026
  C          -6.38913646331414      0.61048383906863      0.17311617032156
  C          -6.42498433552023      1.94354563089775      0.40342669417254
  C          -5.21564534671418      2.68038527908338      0.58470462974454
  C          -4.00673890889731      2.07061703244173      0.52997022420655
  C          -3.92487690796867      0.66846470586803      0.27651264313002
  C          -2.72967814828342     -0.02673721937982      0.23126030485433
  C          -2.65127765640517     -1.39424270570107     -0.02583678230092
  C          -1.41090958873918     -2.12913491889285      0.00134676115838
  C          -0.15558873168140     -1.45047469236315     -0.17408505340781
  C          -0.02681403943740     -0.25972980881909     -0.93436672416047
  C           1.17369088660111      0.37003839333403     -1.10193159998760
  H           3.28413822068428      0.33958694810179     -0.61726186350800
  H           3.15196856737604     -1.78529882388099      0.60063510174417
  H           1.96204031776840     -3.67192308425602      1.33610889714482
  H          -0.22685946869509     -5.29442153179360      1.34595748843274
  H          -1.91936488338960     -6.12375592077199      0.47771600720861
  H          -3.93751297803033     -7.32871991189339     -0.24756005207702
  H          -5.88121934378020     -6.05684274224141     -1.14130369916700
  H          -5.82749390913407     -3.62553249377518     -1.17910761056220
  H          -5.91927883812988     -2.03347033864109     -0.10029053000569
  H          -7.30148736907142      0.04105203014335      0.04050837883319
  H          -7.37344419172003      2.46271826902757      0.45602608434169
  H          -5.27466823341324      3.74569386774532      0.77116481777358
  H          -3.09007021196065      2.63025042876541      0.67003168848312
  H          -0.89107664097804      0.13834951783281     -1.45222990687298
  H          -1.80808662436554      0.49296773617824      0.44083606117104
  H           1.23710362244628      1.26203451417329     -1.71340805056726
42
BNPAH_17045
  C           2.45534131696738     -0.26922204049613      0.39826546092565
  C           2.32913480768028     -1.53922959001440     -0.06104734403251
  C           1.04231179110126     -2.13009844290808     -0.17763759528485
  C           0.91184497828676     -3.47317772780022     -0.50156874602356
  N          -0.27916231024423     -4.03235803240140     -0.49144485795376
  C          -1.46000364516468     -3.38155830563530     -0.28234006721179
  C          -2.64901013102297     -4.19938101548387     -0.18795819043654
  C          -2.60564952396422     -5.58782311089092     -0.36483144394712
  B          -3.79309847622132     -6.44286337917947     -0.05828256162356
  C          -4.98961802213526     -5.67215344914139      0.46377814207011
  C          -4.95631057789962     -4.30322677668245      0.55993534492334
  C          -3.82741275673479     -3.52832818498320      0.21830983268507
  C          -3.88206611579540     -2.07315026916586      0.17060464376552
  C          -5.08133918591447     -1.38364987810028      0.24002561554099
  C          -5.17824087337100     -0.00178312235074      0.04388381241135
  C          -6.42051127020083      0.68925322709891      0.10882429355739
  C          -6.48816804699826      2.02303704836989     -0.14791422296380
  C          -5.32156105840182      2.75244201223751     -0.49324324437410
  C          -4.11884765917633      2.12181688812446     -0.56584511758082
  C          -4.01282873749943      0.73164451574708     -0.28976582085918
  C          -2.79395446630554      0.04730231431199     -0.33850972167504
  C          -2.69324996241377     -1.30243021465890     -0.05663041983260
  C          -1.41454603066935     -1.99975493684087     -0.09124317184967
  C          -0.13998192429777     -1.38968208668223      0.10899839166875
  C           0.05077051186120     -0.09104382128418      0.65954386392983
  C           1.29732730901159      0.44025089536394      0.79703575394130
  H           3.43128412071674      0.18732916530740      0.49971047990498
  H           3.20026995132490     -2.12961627023730     -0.32023943544487
  H           1.75839388388010     -4.11044968914222     -0.72039276660729
  H          -0.37471960528071     -5.03288719146329     -0.62874481222023
  H          -1.69115844641539     -6.05770642630259     -0.73459745428720
  H          -3.78339032087416     -7.63974629579465     -0.19798825459396
  H          -5.91685760126422     -6.14967922679720      0.77331456223661
  H          -5.83483429347767     -3.78241252086699      0.92662551311769
  H          -6.00199214733644     -1.92902330282830      0.39474767695832
  H          -7.31368199946433      0.13013295201290      0.36371248751980
  H          -7.44006770498502      2.53774361830282     -0.09498665466268
  H          -5.39618700490636      3.81317890859921     -0.69922213544881
  H          -3.22247515970619      2.67284425716202     -0.83001962620762
  H          -0.80398152148885      0.46000292655795      1.01944640370923
  H          -1.92104434709272      0.60319823694764     -0.65361393540538
  H           1.40618325589305      1.42224734198883      1.24130632166101
42
BNPAH_17063
  C           2.26542379105013     -0.15387462082283      0.48217504154162
  C           2.20981412906547     -1.34397526648943     -0.16438637314034
  C           0.99274131346941     -2.05190221806404     -0.29966701897379
  C           0.93267195560992     -3.34756826956096     -0.82379472488877
  C          -0.22595189082231     -4.05473310558700     -0.75159508877717
  C          -1.43058354655878     -3.46728571222542     -0.30304612649639
  C          -2.64722223355099     -4.24729187022216     -0.11676752868203
  C          -2.62632737288023     -5.63929139791240     -0.20015756175878
  B          -3.83527347512896     -6.45814847114994      0.14205797026306
  C          -5.03357769731651     -5.64921039751647      0.59144046793106
  C          -4.97329496321730     -4.27820344728134      0.62198186824037
  C          -3.82591185851427     -3.54169800490200      0.25822226369636
  C          -3.85707079625308     -2.09819943301407      0.17176155620165
  C          -5.04655528149320     -1.37661526363498      0.18207727749878
  C          -5.10631855073779      0.00070856867106     -0.02460853643979
  C          -6.33824055911612      0.71869538651905     -0.02329281769939
  C          -6.36714554327410      2.05024553555682     -0.28906629792228
  C          -5.17002326361395      2.75863991918171     -0.58095130676718
  C          -3.97838208800416      2.10748740009505     -0.59088358050228
  C          -3.91092950910491      0.71477506742933     -0.30325671630512
  C          -2.70866697407289      0.01091109637496     -0.29030563310573
  C          -2.64697069433803     -1.34678705045758     -0.00457245831177
  C          -1.41072935539857     -2.09732349003204     -0.04747393187701
  N          -0.17285597578900     -1.47272717801584      0.14227140493584
  C          -0.08604383476615     -0.31189028524761      0.88916535886849
  C           1.07966554864487      0.34586984190753      1.06254285928206
  H           3.20028362330173      0.37982037859672      0.58863045829578
  H           3.09587688813929     -1.80822260104477     -0.57614312700939
  H           1.84110098980215     -3.78313436372716     -1.21643452208415
  H          -0.24497747468341     -5.08354623508734     -1.07983058700757
  H          -1.68878965177205     -6.11936430889624     -0.46434929507668
  H          -3.83355459734517     -7.66322556915320      0.09061979886946
  H          -5.97286900008107     -6.09425522453489      0.91327674436534
  H          -5.84355721265049     -3.72263039990352      0.95777486612668
  H          -5.98267280656771     -1.90495984535422      0.29766588728463
  H          -7.25323592875808      0.17802861791320      0.19004720886887
  H          -7.31042472787350      2.58319401023531     -0.28505888266285
  H          -5.21607883871108      3.81913571894565     -0.79590349973601
  H          -3.06008109795380      2.64068279970122     -0.81343907875508
  H          -1.00632722377574      0.00661796257772      1.34759383399351
  H          -1.81334066802711      0.56132705556540     -0.55428021726393
  H           1.08331845306758      1.23991367056675      1.66996104497993
42
BNPAH_17095
  C           2.64798249666780     -0.36013065407102     -0.00057756080342
  C           2.41080122893436     -1.69361199374499      0.00026212726425
  C           1.08139888480083     -2.19101229070376      0.00040537738050
  C           0.90893521718997     -3.56353610724220      0.00103579927263
  N          -0.30143433277609     -4.05637022752768      0.00091745042449
  C          -1.46782305615558     -3.34252849476083      0.00034493852982
  C          -2.66596164864398     -4.15348804220498      0.00014359452074
  C          -2.57682980440325     -5.56165381148190      0.00035467973591
  C          -3.70922034134733     -6.36243673139535     -0.00001658623631
  C          -4.98761978577492     -5.83216729622544     -0.00064287260768
  B          -5.17987971937203     -4.35087021462478     -0.00089188787218
  C          -3.90972612439773     -3.49698460463702     -0.00041983490502
  C          -3.90766171920709     -2.03874915356290     -0.00037833604302
  C          -5.13030271355115     -1.38279147949617     -0.00042630160926
  C          -5.26702464805270      0.00232205400371     -0.00011451865637
  C          -6.53222585676984      0.65589450130911      0.00000818514154
  C          -6.60688345077145      2.01276275477298      0.00048298358895
  C          -5.42513097738544      2.80150319798185      0.00086906296134
  C          -4.20411012678749      2.20496130782046      0.00072716854157
  C          -4.09319635507475      0.78612970372738      0.00022980861391
  C          -2.85630818901933      0.13787158410265      0.00012145432604
  C          -2.70289633827699     -1.24255384893555     -0.00017939967160
  C          -1.39881336888973     -1.93768827461111     -0.00001173495495
  C          -0.07309012914159     -1.34635658887057     -0.00017617200908
  C           0.25231994906215      0.04215214110900     -0.00101507170314
  C           1.53651392313191      0.50385509228608     -0.00125299648403
  H           3.65552420263986      0.03385648065451     -0.00077336748682
  H           3.22566836646158     -2.40822899907648      0.00080165393323
  H           1.73574223872983     -4.26135923766897      0.00154102060133
  H          -0.42503256185002     -5.05942910608431      0.00127307579493
  H          -1.63548987870701     -6.10470038792789      0.00079467515185
  H          -3.55601005255568     -7.43953212636739      0.00018139931788
  H          -5.81389208251374     -6.53830115776944     -0.00091391137291
  H          -6.28887231625316     -3.88418932338201     -0.00142260954170
  H          -6.02429063727165     -1.98830657451200     -0.00061641468032
  H          -7.43115967567015      0.05013307516492     -0.00027198774922
  H          -7.57239404887217      2.50439909784137      0.00059973073419
  H          -5.50524393916563      3.88180230615133      0.00129209412710
  H          -3.29867531514242      2.80306177019930      0.00102497811197
  H          -0.50499698993682      0.79422908889764     -0.00164224533096
  H          -2.02286755574050      0.80678313188598      0.00034262067076
  H           1.69708923185912      1.57524943897647     -0.00200806902693
42
BNPAH_17113
  C           2.26906557970729     -0.16645444713206     -0.47861638775214
  C           2.20773541970574     -1.36348935516229      0.15431895423296
  C           0.98626016468379     -2.06415467337815      0.28672019961853
  C           0.91863146615648     -3.36479014030389      0.79610453697259
  C          -0.24650806568865     -4.06142339973805      0.72449567090609
  C          -1.44992960779405     -3.46099051548798      0.28794990683259
  C          -2.68168308916144     -4.21061586430333      0.10144413833228
  C          -2.64690352097986     -5.60859810266575      0.17963304435263
  C          -3.76594540120985     -6.38129426034498     -0.11505524326107
  C          -4.96930467282501     -5.82408548895827     -0.50851170405579
  B          -5.10613272417077     -4.33437711066126     -0.61207162971480
  C          -3.87116710197388     -3.52155242075087     -0.25417245611460
  C          -3.86270400112475     -2.07068939179081     -0.17780020045019
  C          -5.04469708815842     -1.34015301007293     -0.21242959297059
  C          -5.09754810344842      0.03611562819649      0.00357312542690
  C          -6.32421721480968      0.76288155363179     -0.01727409296438
  C          -6.34972881807426      2.09237824169679      0.25922623680774
  C          -5.15330492696766      2.78936615658381      0.58052614086926
  C          -3.96596987184611      2.13071180128319      0.60738772597141
  C          -3.90187136339179      0.73974817886430      0.30923635231392
  C          -2.70282633353099      0.03006645830942      0.30444195472265
  C          -2.65069099279794     -1.32742651108760      0.01058849276027
  C          -1.41986404400070     -2.08763705671599      0.04583165471792
  N          -0.17808804317444     -1.47198980332688     -0.14236671641057
  C          -0.08611363374927     -0.30225579361469     -0.87567870152447
  C           1.08376123718968      0.34798107583497     -1.04767295086379
  H           3.20701026712096      0.36221158343915     -0.58285838020873
  H           3.09218401970523     -1.83849665296735      0.55726672245442
  H           1.82531271570646     -3.81165431491726      1.18001499322035
  H          -0.26488164365445     -5.09118795953071      1.04910738318511
  H          -1.73009866074396     -6.12792182181274      0.42496944745027
  H          -3.65754682939759     -7.46135570702257     -0.03846299366643
  H          -5.78155069104248     -6.51366762924305     -0.72593209448009
  H          -6.14079980955618     -3.82302655072853     -0.96152066697497
  H          -5.96885320573612     -1.87940621811182     -0.36885189059751
  H          -7.23709852575750      0.22829064209275     -0.25321956265226
  H          -7.28893935237045      2.63225537379901      0.24168811335102
  H          -5.19618238277034      3.84832198238553      0.80426564206840
  H          -3.04890064239424      2.65657790177494      0.85181956883597
  H          -1.00695386050913      0.02922240824748     -1.32367653039159
  H          -1.80679380074822      0.57375862350268      0.58055681871580
  H           1.09074715358311      1.24879359018759     -1.64499502906512
42
BNPAH_17373
  C           2.68441159971113     -0.39398473459269     -0.00005318067049
  C           2.50134813354302     -1.74695566467602     -0.00003032331870
  C           1.20542358626101     -2.30289389644149      0.00002483922325
  C           1.04912848045728     -3.71136306485097      0.00014544639642
  C          -0.18410854037316     -4.25180020389566      0.00019801985999
  C          -1.36559590247177     -3.44214034165261      0.00007307080817
  C          -2.65302845419019     -4.11288452727580     -0.00002589884007
  N          -2.66791060474191     -5.46817155975308     -0.00019051555853
  C          -3.75164386421375     -6.25053548648301     -0.00019219675155
  C          -4.98601925595913     -5.65844197297450     -0.00003829724058
  C          -5.04690939877069     -4.27677669602954      0.00004301289471
  C          -3.91150376373561     -3.45570408315827      0.00002753648596
  C          -3.95158268066947     -2.01627233961593      0.00005055821804
  C          -5.18490392226297     -1.37118459740065      0.00007660039123
  C          -5.32025706674751      0.01317291873007      0.00004715678061
  C          -6.60887779854950      0.62704441750610      0.00010213351398
  C          -6.75006118692238      1.97591380869916      0.00005946091625
  C          -5.59223568826569      2.80473699405960     -0.00004207464324
  C          -4.35235264637318      2.25650741806431     -0.00010425042343
  C          -4.15108224514614      0.83595627365025     -0.00006446658790
  C          -2.87131724314618      0.28120351417307     -0.00012923595313
  B          -2.64844325195482     -1.20683734864488     -0.00003229191223
  C          -1.28900221865022     -2.04042713938663      0.00000397228846
  C           0.05490196688489     -1.47656935003361      0.00001730829067
  C           0.29705694392731     -0.08345221142343      0.00003040057934
  C           1.56002072701250      0.44318134917256     -0.00000439811604
  H           3.68212097631498      0.02800923452225     -0.00009564889301
  H           3.35262875528612     -2.41882418192495     -0.00004150068317
  H           1.93027924296846     -4.34234125960380      0.00023752318183
  H          -0.21778942691578     -5.33561476472234      0.00044922925394
  H          -1.77315092341746     -5.92894826032840     -0.00036088356407
  H          -3.57995644535475     -7.31690721101202     -0.00032176687561
  H          -5.88110375033012     -6.26370688401845     -0.00001598134714
  H          -6.02243850806759     -3.81231226355500      0.00013195997006
  H          -6.11785726316406     -1.92833011425251      0.00012512884668
  H          -7.48472774362803     -0.01462701328169      0.00018171142370
  H          -7.73481974227068      2.42747294916718      0.00011612878487
  H          -5.70946326753638      3.88249890423661     -0.00007472528232
  H          -3.47363101417543      2.89318578842760     -0.00018056796838
  H          -0.53604876400909      0.58973728161494      0.00011621201297
  H          -2.11032527687567      1.05040541180731     -0.00027077846444
  H           1.68773944652263      1.51896990715692      0.00001257297291
42
BNPAH_17424
  C           2.68507516681828     -0.29442096688431      0.00000608282680
  C           2.46460694402880     -1.63827310447908      0.00002198072623
  C           1.15059204706144     -2.17565953341890      0.00000157470544
  C           0.99958487010301     -3.57014025559446     -0.00000437574685
  C          -0.22703184161467     -4.16807959709573     -0.00001154121406
  C          -1.43848958582258     -3.42701818951318     -0.00001185382506
  C          -2.68751034652237     -4.17808559938910      0.00000984004964
  C          -2.69940066705401     -5.56637774684871      0.00005295183317
  N          -3.83207360580457     -6.27343614348108      0.00003874260475
  C          -5.04872571931595     -5.69344071429232     -0.00000457745427
  C          -5.11787523755214     -4.33681838295683     -0.00003234445714
  C          -3.95699358901707     -3.53907202654988     -0.00001966509901
  C          -4.00846253082338     -2.10069902791371     -0.00005785222767
  C          -5.23171343835024     -1.44096752864428     -0.00005163094528
  C          -5.32747555509066     -0.05469337106036     -0.00002704073842
  C          -6.57473224345934      0.63369267701788     -0.00000588857335
  C          -6.61120211103044      1.99030437215992      0.00003891251651
  C          -5.40215398434310      2.73959651081001      0.00003034434393
  C          -4.19769929250602      2.11275105008586      0.00001628793509
  C          -4.11939105116922      0.68891035866290     -0.00000928338243
  C          -2.89766665226742      0.01711867091430      0.00001832303484
  C          -2.77535490159112     -1.36569730449077     -0.00000981048576
  C          -1.45999837985455     -2.01528150775862     -0.00001679805101
  B          -0.07980985899450     -1.27092783555175     -0.00001483909901
  C           0.28625209508734      0.22645403135535     -0.00003465994267
  C           1.59752701451960      0.61596682614531     -0.00002652884208
  H           3.69828287081234      0.09269043139914      0.00001823297643
  H           3.31452155755029     -2.31918471733230      0.00004251749797
  H           1.88411547368969     -4.20594756897756     -0.00000173366036
  H          -0.23951345457597     -5.24898123309431     -0.00004920884743
  H          -1.79720529627620     -6.15504319529230      0.00009855812999
  H          -3.76740451331059     -7.27891019263833      0.00006603401739
  H          -5.90843252141544     -6.34650296608183     -0.00001364314434
  H          -6.09825821956057     -3.88774816700737     -0.00005807892429
  H          -6.16055012866658     -1.99644447254563     -0.00007580530825
  H          -7.49244523571638      0.05541555172386     -0.00001062648021
  H          -7.56042763359059      2.51202050785639      0.00005522850323
  H          -5.45020245967782      3.82190612178987      0.00006053991999
  H          -3.27586121350094      2.68279370244670      0.00001526628654
  H          -0.39467647195680      1.07052660588474     -0.00005922563578
  H          -2.00426959793931      0.61096372237152      0.00006561459148
  H           1.83936029869979      1.67672920826893     -0.00004902041471
42
BNPAH_17426
  C           2.68544118319481     -0.28142065881783     -0.00006043099974
  C           2.47324545566107     -1.62604601553819     -0.00000647888035
  C           1.16183814140230     -2.17164518846251      0.00004110901361
  C           1.01827443121631     -3.56598585198514      0.00008980223275
  C          -0.20636594133815     -4.17034926412562      0.00009237811222
  C          -1.41906416606769     -3.43620898909369      0.00005627166180
  C          -2.65619123630677     -4.20528221313366      0.00002500573232
  C          -2.70967531666893     -5.60519645433253      0.00005143681979
  C          -3.89901075810382     -6.31503387606052     -0.00000299656484
  C          -5.07893329828073     -5.62085009543540     -0.00009337207789
  N          -5.02913230952387     -4.28510190721107     -0.00010975118796
  C          -3.89958814145606     -3.54302187668655     -0.00004720292863
  C          -3.99168138276801     -2.10874595145914     -0.00000225489951
  C          -5.22169423321466     -1.46611175310135     -0.00000541282103
  C          -5.33062950300092     -0.07964486237490     -0.00000579357391
  C          -6.58174767065240      0.59994698223346      0.00002362376942
  C          -6.62635023740389      1.95652621860481      0.00005066155255
  C          -5.42284695503710      2.71385928258127      0.00005861463796
  C          -4.21469187036965      2.09428729857791      0.00002489765176
  C          -4.12679303921944      0.67102786048816     -0.00000699667368
  C          -2.89925334540640      0.00934397181535     -0.00002120069853
  C          -2.76266358559709     -1.37290663962947     -0.00000912365523
  C          -1.44728254871997     -2.02182322585470      0.00003415827643
  B          -0.07389891158612     -1.27218353525440      0.00001875807445
  C           0.28423397917618      0.22824143781576     -0.00005439295672
  C           1.59279240779615      0.62426475680589     -0.00008725425088
  H           3.69639451109060      0.11150719731096     -0.00008600002170
  H           3.32704054243839     -2.30185206877549      0.00000943161556
  H           1.90573319975723     -4.19742106848795      0.00011600084083
  H          -0.22206372261396     -5.25045911166904      0.00011076763055
  H          -1.78909462006771     -6.16806431431398      0.00011590583046
  H          -3.90607128786444     -7.39537465213488      0.00001894965482
  H          -6.05957782884916     -6.07359885974161     -0.00016467075028
  H          -5.90205603240980     -3.78066947515198     -0.00019608798844
  H          -6.15993616129559     -2.01443510257862      0.00003094124373
  H          -7.49691658859401      0.01738538495625      0.00002292118768
  H          -7.57912334201316      2.47161807101934      0.00007490937540
  H          -5.47794813056265      3.79569019881737      0.00008790594209
  H          -3.29627600998787      2.66968232623820      0.00002780454748
  H          -0.40075109254962      1.06923999098279     -0.00009302890942
  H          -2.01057729475480      0.61073141672222      0.00000795480018
  H           1.82980471055141      1.68607061644049     -0.00013676036510
42
BNPAH_18326
  C           2.66351134366165     -0.03523329571073      0.00000299433686
  C           2.62704735887443     -1.40903605890757      0.00007364533485
  C           1.41073948246147     -2.10535944950869      0.00008628643782
  C           1.40361418486131     -3.54847551150615      0.00016589113686
  C           0.25489886166363     -4.23631683641711      0.00015830146860
  C          -1.03877465578312     -3.58584351761290      0.00005883640469
  C          -2.19439984273852     -4.34049747295648     -0.00000791319791
  B          -3.53542702024850     -3.66234844804062     -0.00010228404436
  C          -4.91125631388474     -4.32215394227235     -0.00030339997077
  C          -6.04952849308001     -3.57456050083907     -0.00033238204459
  C          -6.01344096314155     -2.15026835417049     -0.00012925933044
  N          -7.21831537670342     -1.41690306961086      0.00002328048045
  C          -8.43893591195730     -2.06402603478658      0.00030460492449
  C          -9.62006608057491     -1.40857276670204      0.00031254641646
  C          -9.64951679348466     -0.00045104136108      0.00011041696488
  C          -8.46214723435182      0.65248112347656     -0.00003436435353
  C          -7.23029414535042     -0.04179516378260     -0.00005049108518
  C          -6.01427127166873      0.65086027967687     -0.00012227793770
  C          -4.84041255617540     -0.02801036169876     -0.00008376291368
  C          -4.78045240127028     -1.43924013847268     -0.00009070450125
  C          -3.53410993032575     -2.14720434021893     -0.00009590433688
  C          -2.29441980047642     -1.48262752601699     -0.00008010446067
  C          -1.07867793130417     -2.14290624024378      0.00001210719507
  C           0.19097373809906     -1.40054851960403      0.00002871972615
  C           0.26001909998887      0.00245603828331      0.00000809211328
  C           1.46231920904931      0.67298037150111     -0.00001904214642
  H           3.61074438469109      0.49035521813693     -0.00001055155100
  H           3.54989941200877     -1.97939842791139      0.00011294710422
  H           2.35831481575612     -4.06355605067291      0.00023236872879
  H           0.26460127277323     -5.32093946158217      0.00021267203964
  H          -2.06412065692237     -5.42150093878392      0.00001338086944
  H          -5.05127456098709     -5.40104970593292     -0.00048538290802
  H          -6.99489638576568     -4.09574322131140     -0.00060834894562
  H          -8.40923869171910     -3.13542684927810      0.00056937171705
  H         -10.53041508472392     -1.99154854731533      0.00052303427238
  H         -10.58784824655232      0.53756960383784      0.00010098869345
  H          -8.40968491465928      1.73303004777768     -0.00013085583375
  H          -6.04699195501083      1.73164755061826     -0.00016929881403
  H          -3.91707481059363      0.53338523801189     -0.00005774432075
  H          -2.26035633782234     -0.40052450396938     -0.00015287560812
  H          -0.64755575283815      0.59062512345148      0.00000273116790
  H           1.47103995622553      1.75667470242612     -0.00004826922867
42
BNPAH_18423
  C           2.73339913272278     -0.11074742555470      0.00011282628141
  C           2.66004848749926     -1.48351234632000      0.00021357950320
  C           1.42108930294103     -2.13663123222200      0.00013162932682
  C           1.35923397439416     -3.58138626385117      0.00022666602530
  C           0.19084536715171     -4.23623808664322      0.00010840664274
  C          -1.04944070228577     -3.50138516352628     -0.00005441756290
  C          -2.25041515419364     -4.14679154971742     -0.00012625581549
  N          -3.44288001451142     -3.49464433567608     -0.00018020938334
  C          -4.60667942834337     -4.25103763756920     -0.00019927671775
  C          -5.80794027604693     -3.64136180617593     -0.00015476392039
  C          -5.95727981779932     -2.23559179952458     -0.00011724753953
  B          -7.32772460415455     -1.54942688249038     -0.00001086068785
  C          -8.69959751906772     -2.21148957563856      0.00010047217254
  C          -9.80267311209624     -1.40485348970522      0.00018863305435
  C          -9.71865745703017      0.01842897285790      0.00017372501389
  C          -8.52397511767867      0.68043023589626      0.00008301486652
  C          -7.29811172798563     -0.03487836713333      0.00000424640572
  C          -6.05538339598058      0.62280227840402     -0.00002875390095
  C          -4.85055607258338     -0.04049946961545     -0.00008345617800
  C          -4.77098873452841     -1.45504327255041     -0.00013668746080
  C          -3.49379010454941     -2.11578866715751     -0.00016788163619
  C          -2.26398336182664     -1.44165467094748     -0.00014124959739
  C          -1.04556832631642     -2.07602044839732     -0.00008590615942
  C           0.23708584463260     -1.37645281705719     -0.00004578603531
  C           0.33482927737785      0.02083676899175     -0.00018842720230
  C           1.56077538756891      0.64524321158432     -0.00010726531010
  H           3.69714240717548      0.38309121298345      0.00018272701317
  H           3.56609000767052     -2.07867328451180      0.00035381169768
  H           2.29447994019583     -4.12902660739022      0.00036234764573
  H           0.15511714276194     -5.31901905314633      0.00014313714485
  H          -2.31775080405610     -5.22578278263850     -0.00011463308659
  H          -4.45786262398769     -5.32000852788758     -0.00022118355776
  H          -6.69399381560614     -4.26456249369637     -0.00016561499282
  H          -8.87779780665168     -3.28590836917893      0.00013263910880
  H         -10.80033989007875     -1.83849907130568      0.00027510222266
  H         -10.64247238612726      0.58740020399011      0.00023706063343
  H          -8.51805382007530      1.76911851719271      0.00008737551314
  H          -6.02769330593311      1.71192042926725      0.00000325391530
  H          -3.95036952823553      0.55814636370960     -0.00006986742933
  H          -2.30744603562895     -0.36625721676459     -0.00015764076729
  H          -0.55998836932211      0.62900373298300     -0.00035268014585
  H           1.61309804058886      1.72674678613311     -0.00020858909993
42
BNPAH_20785
  C          -2.83486972400209      3.89793889477044     -0.62091233373322
  B          -1.39297604668922      3.93119042623621     -0.27999247346332
  C          -3.58050891645793      2.72099373231818     -0.50020020496172
  C          -0.74699253785250      2.55886498882560     -0.03475488797727
  C          -2.98119016819525      1.48370457735418     -0.14197724278102
  C          -1.55511445594809      1.40796667395521     -0.12321301899277
  C          -4.99811903427521      2.72540317492095     -0.77222031171069
  C          -3.84971648290217      0.39444026040530      0.27792313355217
  C          -5.77112208366689      1.63787675221576     -0.60433727546038
  C          -5.23099827021287      0.44666302749362     -0.01605385964609
  C           0.66216132955668      2.37693373901635      0.26714436599106
  C          -0.86815275002149      0.15964666764344     -0.40285339783547
  C           1.27717306434500      1.10365482245042      0.32010493095582
  C           0.51630523252437     -0.01715619127340     -0.14528235230707
  C          -6.06877444511028     -0.62378973165044      0.34317429344088
  C          -3.41160657252461     -0.68668597891415      1.07788843637314
  C          -5.59173174625649     -1.70510152253332      1.03945994882706
  C          -4.24976079995642     -1.71241521242658      1.43935958972942
  C          -1.50855677320893     -0.85232818123223     -1.10396207805108
  C           1.09407836417818     -1.27530701284641     -0.42523061542646
  N          -0.90453034239096     -2.00675244481012     -1.37922850636730
  C           0.37723379955554     -2.26092755886357     -1.02113815814011
  C           1.46960798694039      3.49052085199781      0.59622726978850
  C           2.77101280462695      3.34554621694170      0.99106644162499
  C           2.61855613485159      0.97512979470511      0.74031698566710
  C           3.35705493491683      2.07280159633280      1.07930969136396
  H           1.02224661478882      4.47238471818791      0.55154922627869
  H           3.35234531532834      4.22246096065685      1.25092974076102
  H           3.07309899736880     -0.00477926030740      0.81477454784417
  H           4.38168160568301      1.96301634982521      1.41158825978871
  H          -3.39447969794674      4.77894842281431     -0.92768876799631
  H          -0.76361209100404      4.95608027828534     -0.26401238219624
  H          -5.42713615175119      3.65090444320978     -1.14061015555016
  H          -6.82899050396639      1.66497604084565     -0.84275069167147
  H          -7.11984416004336     -0.56516522837431      0.08047359769136
  H          -6.25301108230445     -2.51599593957724      1.31916310036518
  H          -3.87633567689312     -2.51359398221526      2.06698647281527
  H          -2.39561663640660     -0.69030441042864      1.45165072897835
  H          -2.52176507995896     -0.74198127829571     -1.45985243354451
  H          -1.42288320267207     -2.70828399493191     -1.88352604158794
  H           0.77001264350401     -3.23530799718542     -1.26953818110788
  H           2.13320860444983     -1.46561248554205     -0.20262539132838
42
BNPAH_20810
  C          -2.65714121543185      3.97906116419490     -0.57104080003192
  C          -1.33501043761250      3.81831521318898     -0.29182643130499
  B          -3.60353447238885      2.78783282765663     -0.47548261119214
  C          -0.75045858783495      2.53606270141760     -0.07017865094627
  C          -2.98163216428638      1.46227949544670     -0.09418705005000
  C          -1.56863875137786      1.37812024014158     -0.11455068510357
  C          -5.11657333014902      2.79357621657488     -0.76222702932281
  C          -3.86891692715053      0.36791929487897      0.28173095443996
  C          -5.82170660610100      1.65567623207472     -0.60008619695830
  C          -5.25004997930156      0.45494746851581     -0.02949489655527
  C           0.65197113001498      2.39686542351291      0.24417444553552
  C          -0.84918684096932      0.14253956604069     -0.38185065233075
  C           1.28798744368912      1.13050200855646      0.29269457860361
  C           0.54119928023526     -0.00771919300743     -0.14384294008055
  C          -6.10173131217713     -0.61361687458705      0.30152295589860
  C          -3.46356455491175     -0.73881577207625      1.06338753076495
  C          -5.65560874460304     -1.71760280869487      0.98621902069333
  C          -4.32120357669538     -1.75797787112591      1.40200099900820
  C          -1.49006966468293     -0.88895171905273     -1.05109275792382
  C           1.13083356364772     -1.26516641524969     -0.41018775341477
  N          -0.87625089957725     -2.03950091824079     -1.31633606963725
  C           0.41655734142673     -2.26968296953764     -0.97426350014307
  C           1.44778645256790      3.52007583890371      0.58504688642061
  C           2.75433720954485      3.39338708398183      0.96293273065347
  C           2.63764878314102      1.02633480971770      0.69581093790224
  C           3.36588987622915      2.13049295783855      1.02962280671280
  H           1.00340436959206      4.50388998704530      0.58303553108455
  H           3.31971841036070      4.27813321330424      1.23090010181970
  H           3.10620194445733      0.05265016548068      0.76053078586811
  H           4.39621609639747      2.03553944494666      1.34747643488378
  H          -2.99021700628144      4.98732365578625     -0.80868327617392
  H          -0.68052445852566      4.68228356874177     -0.29732426755149
  H          -5.64946387465911      3.67058343151237     -1.12388280737968
  H          -6.88515061673911      1.61092410795040     -0.82855999808517
  H          -7.14920921468652     -0.53542678976535      0.02844515629029
  H          -6.33719264771409     -2.51995253425003      1.24160001276005
  H          -3.96765367358110     -2.57809272235086      2.01708556218774
  H          -2.44864933965789     -0.76914596946599      1.44248796815486
  H          -2.51145131574456     -0.79429056913953     -1.38784920172910
  H          -1.39420000955760     -2.75734721394971     -1.79754153780291
  H           0.81743634118273     -3.24428305072954     -1.20840892253276
  H           2.17518097991135     -1.44118272618693     -0.20067936343184
38
BNPAH_21645
  C           4.64888156782813      2.01145365124014     -0.00006359813471
  N           4.71406352660421      0.64754255177833     -0.00017613976413
  C           3.63065493982433     -0.13795581701643     -0.00014816286088
  C           2.32822144181670      0.33266459956543     -0.00001993607135
  C           2.23920996017187      1.78983873902784      0.00006810611897
  C           3.43242554147643      2.57657660650358      0.00006379363381
  C           1.02930107239308      2.43634635867640      0.00012217405845
  C          -0.15377002425530      1.70949534446839      0.00006375349778
  C          -1.39535026145786      2.40824749021953      0.00006959476229
  C          -2.61244780609208      1.78224538709688      0.00003008755305
  C          -2.72239930136306      0.37072754027320     -0.00002151415833
  B          -1.45129050929629     -0.43228195049492     -0.00002378725744
  C          -1.52258160648974     -1.91501456657993     -0.00005005919166
  C          -2.79298381280637     -2.48553327327047     -0.00009168072577
  C          -3.96044900340437     -1.70917741100921     -0.00010943556824
  C          -3.93812622231024     -0.32215886743190     -0.00006929871714
  C          -0.26618951469823     -2.64198054095597     -0.00001330028618
  C          -0.29464322636329     -4.04975559057558      0.00002634778898
  C           0.83082102566932     -4.82784843519140      0.00010547207041
  C           2.06580025913504     -4.19409665895202      0.00014071410011
  C           2.12457912757204     -2.82079510311864      0.00008815916770
  C           1.00079648958282     -1.96631243374210      0.00001100106134
  C           1.09760900366412     -0.46529898180170     -0.00000177660847
  C          -0.10028185403877      0.26411929922207      0.00000636282729
  H           5.58550655880734      2.54827798840814     -0.00009847972717
  H           5.61503797481403      0.20121368533833     -0.00030016580779
  H           3.12379871164846     -2.44584717104756      0.00012419710450
  H           3.34146565942919      3.65436229496185      0.00014817648967
  H           1.00451121952791      3.52053728335932      0.00018556376378
  H          -1.34951651793113      3.49181633760937      0.00011132695615
  H          -3.50985930598931      2.40012253016068      0.00004798831396
  H          -2.93820977303275     -3.56277806343951     -0.00011449495106
  H          -4.91666611487396     -2.22035807730128     -0.00014683729626
  H          -4.88381357712164      0.21772385060161     -0.00007652361700
  H          -1.25974629029434     -4.53665005679575      0.00000066489689
  H           0.75601615271143     -5.90872793738323      0.00015394766892
  H           2.98601074446835     -4.76562175262020      0.00020989728322
  H           3.89270474467390     -1.17332884978328     -0.00025313837370
38
BNPAH_21649
  C           4.62147611950866      2.02990997762935     -0.00003331508418
  C           4.79290024740050      0.67586331658518     -0.00003681865631
  C           3.66909730130473     -0.14741606082521     -0.00001464501423
  C           2.34754613163270      0.30319094877340     -0.00000144588380
  C           2.23482899672040      1.74816712362890      0.00000690377652
  N           3.38167310214217      2.50864130363796     -0.00000955332327
  C           1.04121853303446      2.42557687756557      0.00001745641783
  C          -0.14084174281735      1.70630260060554      0.00001981644679
  C          -1.38227896702450      2.41338410128408      0.00002872308152
  C          -2.59892265778705      1.79290732389473      0.00001326141961
  C          -2.71391882719158      0.37887855250455     -0.00000330993513
  B          -1.44610036174238     -0.42922703686089      0.00000085007722
  C          -1.52345184691175     -1.91079789767243     -0.00000658283609
  C          -2.79867608628687     -2.47669317974061     -0.00000876087383
  C          -3.96006303219515     -1.69641637898786     -0.00001930402288
  C          -3.93054816719864     -0.30689628351457     -0.00002003649463
  C          -0.27194585285629     -2.64346353736989     -0.00001098760067
  C          -0.30729389309738     -4.05183147214640     -0.00002660868059
  C           0.81442753270368     -4.83443962457470     -0.00000114384966
  C           2.05306994664500     -4.20637523135120      0.00003738938275
  C           2.11984562755598     -2.83412864328838      0.00004079348859
  C           0.99906352383077     -1.97491903341095      0.00001321624693
  C           1.10439510219963     -0.47655251531111      0.00000928866318
  C          -0.09080963023490      0.25966839395683      0.00000513950470
  H           5.42808091601841      2.74970035336873     -0.00004873841344
  H           5.78505536566627      0.25031494563598     -0.00004798019386
  H           3.11838031589440     -2.45879551345273      0.00007934863753
  H           3.24456903200877      3.50740904984966      0.00000468659548
  H           1.03045494408654      3.51124902123183      0.00001936317274
  H          -1.33130042814110      3.49689606179578      0.00004517508663
  H          -3.49440089959810      2.41354944055639      0.00002023354636
  H          -2.94771376665501     -3.55330266157763     -0.00000393364662
  H          -4.91927653341240     -2.20198467821256     -0.00001937042969
  H          -4.87403870506522      0.23701227757715     -0.00003153500015
  H          -1.27455946018012     -4.53439087889534     -0.00005404092305
  H           0.73466141386580     -5.91502851789902     -0.00001407914693
  H           2.97044128424416     -4.78240970926729      0.00006829670647
  H           3.89404842193277     -1.19176481572285     -0.00001875224185
42
BNPAH_21962
  B           2.30779994329481      0.26829485613533     -0.12232172150720
  C           2.27079701111180     -1.20708963381687      0.11313708063791
  C           1.07407432724186     -1.92155904372935      0.05111593322798
  C           1.05233814599606     -3.34846263975351      0.14514812136825
  C          -0.07841723959156     -4.08557596690414      0.03473103670133
  C          -1.35361172268949     -3.45875019566899     -0.04806850334930
  C          -2.58562108066362     -4.21483526394075     -0.03357361847849
  C          -2.56557456337203     -5.62741195142675     -0.04552271608804
  C          -3.70946638325715     -6.37094357273787      0.04375370215822
  C          -4.94526916286673     -5.73284405944297      0.19556837509961
  C          -5.00414016087181     -4.36666338222992      0.17774932490004
  C          -3.84760304577239     -3.57261442121254      0.00495961831388
  C          -3.88892554350684     -2.12895313940529      0.03130164614683
  C          -5.07420262599856     -1.31480004856401     -0.03928093096851
  C          -6.30290872537036     -1.73411362307418     -0.60814246688085
  C          -7.39586334266502     -0.91399454207282     -0.61518541590076
  C          -7.35234778741359      0.37868533915924     -0.05545768032374
  C          -6.17249338693134      0.84968293236848      0.43125983647171
  C          -5.01837493299350      0.03074632696474      0.40975971731242
  C          -3.77599832006301      0.55213705368058      0.77831869359704
  N          -2.69507790972414     -0.15771687952609      0.58341754466756
  C          -2.66670054468944     -1.45832201059183      0.14394754413348
  C          -1.37991533817626     -2.05764093979729     -0.06846620704994
  C          -0.18388063566479     -1.27696917557149     -0.18297561489595
  C          -0.16637425132549      0.09698294945436     -0.56859563639623
  C           0.96937773113658      0.86411200040785     -0.54685538947961
  H           3.31493889542653      0.92803399537071     -0.06286605995217
  H           3.16115870666561     -1.80828786898851      0.29043525443824
  H           2.00481014223178     -3.85243908456231      0.27170352543382
  H           0.00031147359997     -5.16218383328357      0.07108657953728
  H          -1.62028797813932     -6.14297650404355     -0.12294092661895
  H          -3.65197192834275     -7.45248123462225      0.03129906596289
  H          -5.84793933168677     -6.31172251845130      0.34495842026751
  H          -6.36267100124256     -2.69299638994522     -1.09837142314114
  H          -5.95637405454559     -3.89621114278793      0.36550519728833
  H          -8.31194680347365     -1.26169494250152     -1.07705740706471
  H          -8.23840209814652      0.99989793467410     -0.05422471351662
  H          -6.09024301623514      1.86046324318419      0.81338817393195
  H          -3.65074143246886      1.54752170928997      1.18373150199986
  H          -1.06899712145207      0.52020884179267     -1.00746226884634
  H          -1.77438182660925      0.24995661802221      0.75537859651454
  H           0.86380791924469      1.88351120814841     -0.91428478965214
42
BNPAH_22660
  C         -12.27196098939215     -7.65633865044878     10.56858346182321
  C         -11.20626222876405     -6.77344664597454     10.53116660755743
  B         -13.65674601492383     -7.12408591809678     10.34893732480131
  C         -11.33159630360987     -5.42780130939785     10.16993274500553
  C         -13.76180260702536     -5.63151193008798     10.02226053045728
  C         -12.58141274582814     -4.85595117530843      9.84407451251857
  C         -15.00605929128348     -4.95528300582699     10.01840622078673
  C         -12.70935188140652     -3.48465542458117      9.37780151239267
  C         -15.09946714980337     -3.60079618704723      9.90678975069946
  C         -13.94948875679859     -2.84214787411586      9.57624589776508
  C         -11.68355014920388     -2.72617029095764      8.70089935197412
  C         -14.03968963577144     -1.42762929196542      9.45339602264114
  C         -12.97708346546103     -0.68022345409498      9.07675463288404
  C         -11.79466879339349     -1.32011808447744      8.62367971636955
  C         -10.77014677673238     -0.54814965556614      8.02195185210881
  C         -10.61990910914007     -3.28915242094247      7.91160580386535
  C          -9.64728095212511     -2.52028306056095      7.25879293295691
  C          -9.71486973674852     -1.11221862511667      7.38508782314205
  N         -10.59977786543191     -4.64740000890525      7.68561809860970
  C          -9.73646881028204     -5.27305079204726      6.94154992836867
  C          -8.65407878931755     -3.17608862072780      6.44577621123181
  C          -8.71596921166231     -4.57534401947358      6.27479220756573
  C          -7.77233765708743     -5.25925150813927      5.47817645558847
  C          -7.61030066633829     -2.49054354322685      5.78904251406153
  C          -6.77670829397976     -4.56450181338352      4.85792317239609
  C          -6.70191162565301     -3.16856855111619      5.02226840438187
  H          -7.85243395126419     -6.33472531373103      5.37226723015102
  H          -7.51617611385098     -1.41914915425929      5.89195011222534
  H          -6.04641950867005     -5.07768722858041      4.24607484866129
  H          -5.90706646827116     -2.62022237071513      4.53139869302634
  H         -14.66032864635339     -7.78571845474099     10.46098335902735
  H         -10.45853983047602     -4.78642975949222     10.23975484001934
  H         -12.04978738887473     -8.68526207633222     10.83975072949209
  H         -10.20736421708164     -7.11217643280116     10.80455635745556
  H         -15.90100016539140     -5.54589903569181     10.18550246692466
  H         -16.04700008102736     -3.08703989161865     10.02151251308602
  H         -14.98376591787268     -0.95433517721742      9.69941239198355
  H         -13.03809919075580      0.40061374543853      9.03227055710895
  H         -10.86436996252558      0.53130228107564      8.05530837833780
  H          -8.96641807471149     -0.48411918749681      6.92488834591554
  H         -11.22170245597230     -5.21043934328648      8.29956342105969
  H          -9.83447251973750     -6.35070973896345      6.88992206357226
42
BNPAH_24723
  C          -2.23030039027800      3.65892423114629      0.84767841707216
  N          -1.04940782423992      3.12756878958180      1.27336544118480
  C          -3.09007947570856      2.86566492700323      0.16939600513703
  C          -0.66162725561071      1.89435221123298      0.97819291503800
  C          -2.75049954754226      1.52309018818449     -0.13270979910644
  C          -1.44946844981850      1.05866193384778      0.18722394985861
  C          -1.02078430544775     -0.27900111720710     -0.15668617463101
  C          -3.68360481714812      0.62287665727450     -0.69702525956157
  C          -3.34797019380122     -0.68925722653092     -0.80846194938618
  C          -2.05118079973124     -1.18485259796346     -0.49901283396353
  C           0.33178333268483     -0.72700705768248     -0.05177952878897
  C          -1.77470073615006     -2.56599384244576     -0.52507822571303
  C          -0.54160566727354     -3.00450078142734     -0.13887781950549
  C           0.52409748824938     -2.11764313473554      0.12800571773158
  C           1.49163910374022      0.14047480054184     -0.07551853181460
  B           2.79862563713982     -0.35762897686519      0.53807338606928
  C           1.78648630464319     -2.64808749609489      0.58494501193615
  C           2.84406786556398     -1.86139834207968      0.88689147885248
  C           1.48657619683666      1.38284866282008     -0.70713984550874
  C           2.56202626429204      2.27125070896622     -0.63552697813768
  C           3.76441930647589      1.91329622411536      0.07490995443892
  C           3.91453589656289      0.64203192184718      0.62298114576489
  C           4.79912379130137      2.90686005760215      0.14320522809266
  C           2.48265134273821      3.55491579714556     -1.25715943222951
  C           4.67167270571233      4.12446129037384     -0.43998226864484
  C           3.49051941298384      4.45943401021928     -1.16265303561068
  H           5.70648961546328      2.65226748856438      0.68118302866024
  H           5.47489319161317      4.84905262623325     -0.36664749334872
  H           3.40789221175322      5.42859560979699     -1.64052625721676
  H           1.58295159301592      3.79663488169490     -1.81680845376116
  H          -2.42059839355392      4.68951449724944      1.10612010443624
  H          -4.05214355640859      3.25743017950104     -0.13279170781257
  H          -0.42643866717637      3.69605829758095      1.82677945169494
  H           0.28453031718102      1.56915403547219      1.38512892273306
  H          -4.67138258476323      0.97431257715129     -0.96698800025970
  H          -4.08783592561583     -1.40306356331999     -1.15495058050883
  H          -2.55842641666607     -3.26279885874823     -0.79714599918375
  H          -0.34802218158245     -4.06916157304872     -0.06301765267174
  H           3.72908046360305     -2.34949256534215      1.29022118065964
  H           1.82420051696896     -3.72748078618094      0.71731739107441
  H           0.63127056737785      1.70590599341798     -1.30049307130628
  H           4.88288406261522      0.42700832110741      1.07342316823666
42
BNPAH_24823
  C          -2.24004202274162      3.65944992537203      0.68670636487792
  N          -1.04335992933240      3.15619706060950      1.10575769403307
  C          -3.12905342011742      2.82220176955900      0.10879055168536
  C          -0.66700411831191      1.90609607604604      0.88585083927460
  C          -2.79644786714372      1.46068640081877     -0.11601269387536
  C          -1.48703315351802      1.02263715103989      0.17790435945889
  C          -1.05617627462622     -0.32462591872824     -0.12348286538299
  C          -3.74846782651057      0.52362424370496     -0.58766573899251
  C          -3.40527897457724     -0.78850541475681     -0.64382075500249
  C          -2.08549672843343     -1.25266717262344     -0.37842957680075
  C           0.30485939363339     -0.75575219308015     -0.07652797280887
  C          -1.79010246358459     -2.63601525573250     -0.37015573719575
  C          -0.53620811976969     -3.05071227586052     -0.04979630464543
  C           0.53038038586308     -2.13163102407801      0.11891230397782
  C           1.44453737291619      0.15051750863156     -0.20586127167392
  C           2.68791575587912     -0.30548303346493      0.35139395522880
  C           1.83125624270420     -2.58373338965496      0.48997116962195
  C           2.82883013442043     -1.68542353770188      0.67614669830411
  C           1.37112337452856      1.39325868978203     -0.83146520860549
  B           2.50581469354714      2.37327776143645     -0.71886392719076
  C           3.74338039933148      1.87908010469579      0.04018058283595
  C           3.78347570016447      0.56374737921078      0.47380072051516
  C           4.84669267863235      2.77344348786379      0.22152853263630
  C           2.55262186499839      3.82906820667066     -1.21317720393857
  C           4.79436265980904      4.05073211483570     -0.23839236568271
  C           3.65669318477489      4.57584035456033     -0.94234636202434
  H           5.74086885681351      2.42896278662006      0.73864443178511
  H           5.64331970891234      4.70818704201689     -0.08022306347491
  H           3.72062487694453      5.61182756972113     -1.26998261085736
  H           1.74644569057900      4.30949663066817     -1.76760791257240
  H          -2.41630537095868      4.70779505128563      0.87377752055556
  H          -4.10300612493367      3.19313947570536     -0.18081904621793
  H          -0.38929690679933      3.76513299231379      1.57512973617483
  H           0.28494193577161      1.60982428375894      1.29455066158112
  H          -4.74973304986738      0.85368037624353     -0.83338835119854
  H          -4.15121577046109     -1.52663576620099     -0.91844080782405
  H          -2.58127603944858     -3.34892698048595     -0.57004315051062
  H          -0.31957758721969     -4.10908938008214      0.04400480872827
  H           3.79716633598529     -2.02320577603485      1.03180426853308
  H           1.98823155602084     -3.64123318082606      0.66533327817495
  H           0.45347727823858      1.62461588473597     -1.36938215345686
  H           4.69440166788680      0.15639797140465      0.91375460194975
42
BNPAH_25754
  C          -2.59115332841366     -0.43087119770226     -0.00004179526032
  C          -2.58282305994578      0.92609475348591     -0.00000307831011
  C          -1.36410893425120      1.67878748871196      0.00002404285975
  C          -1.35690369618593      3.07597533887610      0.00005924954943
  B          -0.06048369008430      3.80825196958696      0.00007010847318
  C           0.11601452630535      5.33765283088873      0.00003789784294
  C           1.35470253581500      5.90166745534653     -0.00001122861053
  C           2.51641524436381      5.08862379283207     -0.00000346385056
  N           3.72014225769221      5.70345193016592     -0.00001616985849
  C           4.92739663053640      5.09205840822503     -0.00001003231009
  C           6.11599171528600      5.87408658851774     -0.00003347907860
  C           7.31402661985929      5.25432504122910     -0.00005509254090
  C           7.41993354212212      3.82606424945924     -0.00003846693916
  C           8.68135880924311      3.20346062799243     -0.00002373667604
  C           8.78958651880128      1.83820804288786      0.00001514760814
  C           7.63067828522057      1.05194951894173      0.00003856836186
  C           6.39035391521985      1.63794351914631      0.00003469651708
  C           6.25141847440888      3.03700017561508      0.00000644082868
  C           4.95966771998091      3.69692854210120      0.00000499368370
  C           3.72919692813469      3.02328938576797      0.00005570197157
  C           2.49792186228535      3.65346566602228      0.00001827339775
  C           1.21762601042373      2.97404715631331      0.00003583580903
  C           1.10783368419789      1.59249077658182     -0.00003083554548
  C          -0.13233316409133      0.93857984133473     -0.00001010250974
  C          -0.18799682397889     -0.48640366976242     -0.00002657315303
  C          -1.36928078682631     -1.15626315730956     -0.00002896309406
  H          -3.53175996163616     -0.96984497889391     -0.00007714673249
  H          -3.51680076967026      1.47817021231348      0.00001026409197
  H          -2.33048205724223      3.56368591647614      0.00006497814078
  H          -0.73161386331858      6.01992363295624      0.00002900509617
  H           1.50294076036976      6.98007250380326     -0.00004695809752
  H           3.70978164343157      6.71297857185467     -0.00001410164341
  H           6.04411489852132      6.95576733184741     -0.00001674567181
  H           8.22718608016684      5.83796498887706     -0.00007338893269
  H           9.57047473598564      3.82381593272452     -0.00004161400242
  H           9.76426112891077      1.36669484323479      0.00003136034677
  H           7.71256323202680     -0.02793288461463      0.00006050350698
  H           5.51307318992113      1.00523846695099      0.00005161660854
  H           3.73461331782152      1.94244542595815      0.00012270845158
  H           1.98337778263759      0.94507065157746     -0.00009975525598
  H           0.74877356951457     -1.03527995149310     -0.00002637387134
  H          -1.38608548355933     -2.23962573882834     -0.00004329120111
42
BNPAH_27057
  C           8.82306229294501     -1.66216098503967     -0.00005705694882
  C           7.67625772217066     -2.38835002903834     -0.00010838912243
  C           6.38413197926232     -1.77434328436084     -0.00005024036740
  C           5.22018736840428     -2.55814299670079     -0.00012010050654
  B           3.87450124468621     -1.95355922820801     -0.00010118513617
  C           3.84579530448732     -0.41583744322275      0.00001627127222
  C           2.62032420116486      0.31364423177334      0.00006216661641
  C           1.35620840304307     -0.30214914105504      0.00010344121354
  C           0.17938764192578      0.40130018745600      0.00008639404255
  C           0.21891512039044      1.82987988838110      0.00005637506146
  C           1.44959822866902      2.41127576868061      0.00004530795325
  N           2.60776849846143      1.69437903059393      0.00005500467614
  C           3.81052678681183      2.38805766915797      0.00003494179477
  C           4.98114256730867      1.73753128228872      0.00003410886654
  C           5.06630076314919      0.31179543811335      0.00004734058716
  C           6.33038198212768     -0.34416561913319      0.00003581146427
  C           7.55773147367508      0.37764776814297      0.00010993433503
  C           8.76564326366429     -0.24791746117706      0.00007570013024
  C          -1.02685283614678      2.59710313925470      0.00003182967953
  C          -2.24145947207770      1.89057310836000      0.00007781055841
  C          -3.45116184699757      2.59615505258742      0.00000984348710
  C          -3.46717962040973      3.97109630329927     -0.00011580466568
  C          -2.26288452534510      4.67402078532027     -0.00014064637432
  C          -1.06457591190344      3.99622777641738     -0.00008843655977
  C          -2.23761065223543      0.44381738073477      0.00013361777227
  C          -1.09979357868610     -0.26441049534418      0.00012374037981
  H           9.78519948149551     -2.16163780554322     -0.00010413094473
  H           7.71539081036796     -3.47206959203955     -0.00019937673716
  H           5.38253541445688     -3.63366260783696     -0.00020653420803
  H           2.87280996603701     -2.62139368700808     -0.00019175743185
  H           1.34569064392090     -1.38147214726249      0.00013156149302
  H           1.59221228477405      3.48121683144026      0.00002585630325
  H           3.72175450047095      3.46406122604013      0.00001156287755
  H           5.87182089329794      2.34770883782639      0.00002129236336
  H           7.55175465281931      1.45972868734701      0.00021682923858
  H           9.67977791899657      0.33301452853368      0.00013999166495
  H          -4.38112283485852      2.03901888090106      0.00003226207169
  H          -4.40868291997843      4.50592375716576     -0.00018024656316
  H          -2.26725243554913      5.75691730832292     -0.00022873702110
  H          -0.14624502253313      4.56943876422224     -0.00011980223413
  H          -3.19597458399490     -0.06297097962792      0.00017525358792
  H          -1.11299716826828     -1.34730212976319      0.00011619533028
42
BNPAH_27236
  C           8.76131632062388     -1.86497296987790     -0.00011686991493
  C           7.55963992569067     -2.49112653339193     -0.00002367562972
  C           6.34346555763719     -1.76949705462463     -0.00001330623566
  C           5.11248538992841     -2.43552344900509      0.00002916858204
  C           3.95392679521067     -1.73037279858349     -0.00001069992957
  C           3.92814455626479     -0.31891099988985      0.00004157755286
  C           2.69868373270232      0.41476691187775      0.00009996468823
  C           1.44065313080545     -0.20743390539338      0.00005777809505
  C           0.25256100184601      0.50350599592081      0.00006049539988
  C           0.21892295135702      1.94646096215410      0.00009192251341
  C           1.40394293749247      2.65250535080581      0.00022000593167
  B           2.72491860978602      1.92934049083585      0.00021011899466
  C           4.11506866130381      2.55951707107605      0.00034978228906
  C           5.23916277761173      1.78897056085078      0.00031907272079
  C           5.17506135918227      0.36605043085537      0.00009892841010
  N           6.36319463875309     -0.39429686128953     -0.00005189748051
  C           7.59775062287199      0.22535458240291     -0.00027896865940
  C           8.76389234122725     -0.45650016874995     -0.00028595643620
  C          -1.10503180952536      2.59721299751464     -0.00002409119163
  C          -2.27725209192838      1.81759193166579     -0.00001666902900
  C          -3.53262460781261      2.44263832756606     -0.00009583094695
  C          -3.64522779483293      3.81230496898651     -0.00018031247172
  C          -2.48860724812360      4.59209013733355     -0.00022475947611
  C          -1.24964275593909      3.99188768747550     -0.00014953540740
  C          -2.18219278365730      0.37802631650539      0.00005588403704
  C          -0.98825208783005     -0.23174483687137      0.00006553083506
  H           9.68732355704567     -2.42396741399218     -0.00010093342272
  H           7.48322158874583     -3.57024247900131      0.00005333498590
  H           5.12165361002150     -3.51676304429931      0.00005525120427
  H           3.01588136099778     -2.26742840417922     -0.00003801445368
  H           1.33401213295686     -1.28977497098163      0.00003347873495
  H           1.35245321518635      3.73690164996304      0.00029675429256
  H           4.27795425999971      3.63534845231203      0.00054199069454
  H           6.19467987042406      2.29155257725878      0.00054465897028
  H           7.59175054043463      1.29727273082369     -0.00049720177820
  H           9.68709922271639      0.10586685162505     -0.00045925867706
  H          -4.42262434910547      1.82223842496607     -0.00008357567923
  H          -4.62166835883310      4.28193253709924     -0.00022514659829
  H          -2.56244468888894      5.67315947096076     -0.00031554513139
  H          -0.36913636710221      4.61963766554481     -0.00019607436512
  H          -3.10092122229302     -0.19800681989334      0.00007812795171
  H          -0.93017650295180     -1.31558237435624      0.00008749603044
42
BNPAH_27333
  C           8.80452432864405     -1.86595806598275      0.00017470362651
  C           7.59713775045267     -2.50452247946611     -0.00000094873209
  C           6.38526966507800     -1.76563139514648     -0.00007881435025
  C           5.13058375120572     -2.40052476601376     -0.00020915402494
  C           3.93853783079260     -1.71473164552383     -0.00023186843172
  C           3.88725953041209     -0.29935715479967     -0.00016998425636
  C           2.62227199211452      0.38233056710699     -0.00016520689165
  C           1.37970530502209     -0.26314353223060     -0.00012538976204
  C           0.18133595929531      0.40864076319726     -0.00007191213513
  C           0.19208408561674      1.83422750874599     -0.00007507272400
  C           1.41143419859266      2.44364028654220     -0.00014643536542
  N           2.59025101720977      1.76212575474637     -0.00017069885850
  C           3.76825160139389      2.49747523517707     -0.00015245225505
  C           4.95951732355167      1.86824640741807     -0.00006694993723
  C           5.08687722249225      0.46018625139354     -0.00008200473529
  B           6.44417558706411     -0.25167568227506      0.00000974851055
  C           7.82875218078322      0.38335733819162      0.00020630169772
  C           8.91596475981156     -0.44456053348148      0.00029031689179
  C          -1.06937975951255      2.57418895001265     -0.00000448093692
  C          -2.26845729184002      1.84089220782091      0.00017920174353
  C          -3.49384342828200      2.51972239928750      0.00028204671601
  C          -3.53937065934366      3.89348698643306      0.00014582585800
  C          -2.35039094713233      4.62297580210614     -0.00008223187378
  C          -1.13745669988083      3.97250918350845     -0.00014246467876
  C          -2.23358340412570      0.39592373941874      0.00020457921165
  C          -1.07955595241083     -0.28688556320521      0.00007800217371
  H           9.71721396714524     -2.45261201939174      0.00023708993503
  H           7.56980493613860     -3.59287811237782     -0.00006881751744
  H           5.08286016454013     -3.48892156596100     -0.00027655551438
  H           3.02555097458134     -2.29362407131313     -0.00029839638994
  H           1.37034012237935     -1.34190559183217     -0.00013542162742
  H           1.52622673689926      3.51656192035619     -0.00014837949256
  H           3.63933659107942      3.56899792973636     -0.00014399664064
  H           5.85494465833739      2.47795882940134     -0.00003120333605
  H           8.02799868356628      1.45407403511044      0.00031638405024
  H           9.92183632913575     -0.03029684944027      0.00044970704963
  H          -4.41145176548573      1.94254618804960      0.00042736017552
  H          -4.49213524512153      4.40791545677814      0.00020466913650
  H          -2.37901461328469      5.70544509240004     -0.00020148092191
  H          -0.23204786544602      4.56574902573162     -0.00029159182308
  H          -3.18037829902553     -0.13201860541700      0.00031977117935
  H          -1.06996232244430     -1.36994022481219      0.00004620525679
42
BNPAH_29706
  C           2.78877772049885      0.18518733970505     -0.08926366491109
  C           2.76342029561956     -1.23451284079915     -0.20589611066562
  C           1.57736022344122     -1.89051962451612     -0.19872879948829
  C           0.33278851123543     -1.19753028353093     -0.07521557705417
  C          -0.86571145346312     -1.91263073959631     -0.07053609160360
  C          -2.10590450210847     -1.28621631250813      0.03581472303478
  B          -2.14238402518300      0.23226744943891      0.15793944482088
  C          -3.53547901007894      0.84478573159347      0.31350383046188
  C          -4.65985622578686      0.07563057719440      0.26581561322941
  C          -4.58775814334662     -1.33488698138094      0.08032436092556
  N          -5.76939817186559     -2.07727884044335     -0.04850441891561
  C          -6.96002207685713     -1.39760369749388     -0.32679189157673
  C          -8.14424497189759     -2.00932128081178     -0.38788482480081
  C          -8.25656453505874     -3.41764891404261     -0.16897619558637
  C          -9.49374620561910     -4.07658931775100     -0.17208132936870
  C          -9.55623522386130     -5.43264120489735      0.02278807445021
  C          -8.37788388356616     -6.15889548495463      0.22494124329454
  C          -7.15909639508243     -5.52738624020475      0.22396540749710
  C          -7.07074331162295     -4.13859358134769      0.02461866495406
  C          -5.79378164124509     -3.44435316915146      0.02696485923106
  C          -4.57742420713201     -4.11301010387092      0.09418498071183
  C          -3.39828454391977     -3.42140612988833      0.05441629444937
  C          -3.34412149606239     -2.02271507641808      0.04017357368604
  C          -0.83461488638892      0.95727972646569      0.15746264763063
  C           0.35090782764591      0.23875843803950      0.04035511434623
  C           1.63394327097816      0.88344974992777      0.02789716862309
  H           3.74081825202374      0.70365422208393     -0.09554151079565
  H           3.69361561198782     -1.78239071532382     -0.29869852619854
  H           1.55224201834201     -2.97222951045279     -0.28752621790612
  H          -0.77012735801412     -2.99166071694976     -0.17394918808864
  H          -3.69319498111252      1.90590612863754      0.49583446728752
  H          -5.62148533710250      0.53804544723526      0.44085964708868
  H          -6.85241690802168     -0.35126743778411     -0.54115066311469
  H          -9.02147435852350     -1.42381331966343     -0.62903708142836
  H         -10.39673699097111     -3.49842716082343     -0.32862481532271
  H         -10.51223524874505     -5.94097956820414      0.02322328944409
  H          -8.42525444037510     -7.22853476540043      0.38577323400368
  H          -6.26952850404367     -6.11640974749942      0.39386818698327
  H          -4.56691127176790     -5.18972748166372      0.14388125583426
  H          -2.47171938241789     -3.97913504427822      0.06633034750373
  H          -0.73926337287491      2.03873200791390      0.24178204359695
  H           1.65513233234347      1.96461347341536      0.11568843373685
38
BNPAH_30280
  C           9.22498536500981      2.03763917940321     -0.00002272939984
  C           9.36164328572296      0.59744956654249      0.00000337624144
  C           8.30051858518432     -0.24348161607286      0.00002538156192
  B           6.88002248954384      0.35467583749588      0.00001857190242
  C           5.56824314273881     -0.39139059180386      0.00002545599882
  C           4.36978609782812      0.28999475734072      0.00001770396357
  C           4.36427651639991      1.74571850369828      0.00000455420534
  C           5.57431563603340      2.49189270705239     -0.00000644718135
  C           6.80400634733721      1.89436562134538     -0.00000509438935
  C           8.02498953441172      2.65865132294552     -0.00002934068366
  C           3.16017311493428      2.42072221471682      0.00001275665035
  C           1.91807577809323      1.79570473184470      0.00002947279626
  C           0.71031438416376      2.52629005635213      0.00001668838036
  C          -0.48004534743030      1.89415117989172      0.00001148748780
  C          -0.54872071668361      0.47230295292287      0.00001156687689
  N           0.63238175468756     -0.27090900947765      0.00001017268839
  C           0.56010513258915     -1.65368605274331     -0.00000431397132
  C           1.75874671829868     -2.39418452542338     -0.00000728247982
  C           2.96143565088552     -1.77363872479813      0.00000569331927
  C           3.06858560956642     -0.36794287091872      0.00001509986691
  C           1.87947109654312      0.37275104072056      0.00002511582859
  C          -0.68490018558120     -2.29111983196751     -0.00001781389640
  C          -1.84406444904230     -1.56274446395387     -0.00002406894366
  C          -1.76908523411257     -0.18128751367707     -0.00000552166229
  H          10.13300332597000      2.63179239908474     -0.00004636941070
  H          10.37751339664359      0.20829747428497      0.00000087822990
  H           8.50499396662855     -1.31217633878311      0.00003808629595
  H           5.54957893449210     -1.47731388606157      0.00003352282121
  H           5.47917326198564      3.57792078622714     -0.00001459351884
  H           7.97939157682573      3.74574106277891     -0.00005431734121
  H           3.17636009712147      3.50658861590235      0.00000517280649
  H           0.75910685596287      3.60917911147598      0.00001401317450
  H          -1.41751393230650      2.43129120120795      0.00001350911722
  H           1.67700486629003     -3.47196638955396     -0.00001753775092
  H           3.86368026662999     -2.36790735704656     -0.00000353443329
  H          -0.69008736900556     -3.37175375029444     -0.00003238824922
  H          -2.80630664031963     -2.05878736191197     -0.00004394472880
  H          -2.66090191404013      0.42904896125325     -0.00000198217293
38
BNPAH_30372
  C           9.32967115151147      1.80170760539523      0.00003283527903
  C           9.24733210872661      0.40175219740643      0.00001462042432
  C           8.02782300854418     -0.22582741372798     -0.00000958954134
  C           6.82711299321989      0.51729601696279     -0.00000434913288
  C           5.57132292818484     -0.17474525447232     -0.00002344486672
  C           4.35742246249786      0.45449382107167     -0.00001915662295
  C           4.30320949489474      1.90852624143568     -0.00001223534099
  B           5.59772019383612      2.72207605361200      0.00000922390422
  C           6.89999715300798      1.93351911880057      0.00001410585029
  C           8.17190691758229      2.54024678552021      0.00002273809682
  C           3.07835033237502      2.52426040280055     -0.00001771377089
  C           1.85050184341499      1.84271103525427     -0.00003023461919
  C           0.62108225154115      2.51883779320257     -0.00003068936872
  C          -0.54875995608483      1.83847308895264     -0.00001790490454
  C          -0.55858985227139      0.42067736467601      0.00000374193247
  N           0.65283945922643     -0.27554937009144     -0.00000498083514
  C           0.63691322243909     -1.66250711322754     -0.00000346475458
  C           1.86376177667059     -2.35267035026981     -0.00001914859342
  C           3.04087925715051     -1.68096054816496     -0.00002115593088
  C           3.08988547341427     -0.27621889813804     -0.00002062978801
  C           1.87396472967799      0.42008140194192     -0.00002335319406
  C          -0.58076216630545     -2.35079637249868      0.00001503608368
  C          -1.76877700536481     -1.66778357919115      0.00003982287677
  C          -1.75359261628759     -0.28679398975410      0.00003522748311
  H          10.29741420268683      2.28885087155903      0.00004553450058
  H          10.15624802990964     -0.18986031998164      0.00000992686713
  H           7.97775808560845     -1.30996748087897     -0.00003344450191
  H           5.63564787825550     -1.25589530605524     -0.00002648462414
  H           5.56594659932848      3.92557737261957      0.00002670685133
  H           8.22371172175221      3.62429938552138      0.00003365335854
  H           3.04334313488113      3.61012495448587     -0.00001713565069
  H           0.62635693472125      3.60301169914618     -0.00003995168798
  H          -1.50612900884971      2.33885199290247     -0.00001638699055
  H           1.82669937358315     -3.43273642333690     -0.00002085827941
  H           3.96361983092432     -2.24363327974029     -0.00002736608182
  H          -0.54216607410804     -3.43054278908142      0.00002288285756
  H          -2.70986951112922     -2.20338888228859      0.00006501814960
  H          -2.66953635916595      0.28638616763201      0.00004860456538
38
BNPAH_30441
  C           9.27537961975628      1.81634982833348     -0.00008430782157
  C           9.24131520254587      0.39758099582395      0.00001475416312
  C           8.05443705644958     -0.26502212917658      0.00009127169588
  C           6.82153315594316      0.44762711437125      0.00006804541769
  C           5.58638301469418     -0.21236499294419      0.00010500514631
  C           4.38207418784780      0.47409912032913      0.00006180025109
  C           4.41640677173997      1.90426227101954      0.00002964631888
  C           5.63884518206200      2.55324060064459     -0.00000258889392
  C           6.85751689769240      1.86616277271106     -0.00000140237874
  C           8.11676506627877      2.52735601430172     -0.00008614160918
  B           3.09949726795497      2.68246975585820      0.00003859147998
  C           1.82123292587161      1.89337854644974      0.00003623014809
  C           0.56405383345409      2.53165832712760      0.00001336135288
  C          -0.59308233765848      1.83444538527635      0.00000905307635
  C          -0.57243631379999      0.41688619396857      0.00001459675562
  N           0.65565323161247     -0.25377882395788     -0.00000749439829
  C           0.65487211582721     -1.64399054140118     -0.00004394801306
  C           1.88064361017434     -2.32015252118671     -0.00007160231976
  C           3.05145531179587     -1.62820044248975     -0.00002511480677
  C           3.09544355359298     -0.23284908466505      0.00003377174266
  C           1.86768736491766      0.47594973132778      0.00002003733520
  C          -0.55657004010545     -2.35150543848263     -0.00007051410638
  C          -1.75250629098805     -1.68927350695604     -0.00001476045329
  C          -1.75657370407005     -0.30659303345546      0.00004314714793
  H          10.23047924717503      2.32744299729985     -0.00015620383736
  H          10.17224537140578     -0.15692101693462      0.00003201146623
  H           8.02995236719532     -1.34935007471256      0.00016963373221
  H           5.62205916771339     -1.29409606310396      0.00016313083404
  H           5.65075897164853      3.63890876549658     -0.00003657972319
  H           8.13354694965182      3.61167159074647     -0.00015608691897
  H           3.07991604940482      3.88482797826065      0.00004273468330
  H           0.54533245884975      3.61583171189561     -0.00000249905636
  H          -1.56178034054880      2.31370501728728     -0.00000465718996
  H           1.85971073457861     -3.40023609004300     -0.00011640075392
  H           3.97230833618627     -2.19316789826971     -0.00005546637822
  H          -0.49908302896561     -3.43045232639834     -0.00011661546578
  H          -2.68568615040026     -2.23897885112000     -0.00001752040416
  H          -2.67952981748385      0.25495711676825      0.00008308178143
38
BNPAH_30545
  C           9.22790540217643      1.86538459196818      0.00008753736586
  C           9.18037110893663      0.43519742528765      0.00009201602469
  C           7.99578084015459     -0.19067267478138      0.00003090070386
  N           6.79714563801989      0.51444981783455     -0.00001750118883
  C           5.62114905180580     -0.16162233074484     -0.00004389634486
  C           4.39795655351143      0.44751219599706     -0.00007244159072
  C           4.36285989827412      1.89831813588970     -0.00007519985339
  C           5.60264301872781      2.56591807240937     -0.00005651713301
  C           6.80105632616776      1.90609210149672     -0.00002566028334
  C           8.07608562171684      2.56142706069884      0.00003257230141
  C           3.15098951296649      2.57993645368368     -0.00006521458566
  C           1.95074801239964      1.87618946020155     -0.00005657827104
  C           0.67971311584131      2.56343787405061     -0.00001552446558
  C          -0.52249418379935      1.92128581812388      0.00001999287251
  C          -0.62777938404047      0.48819568028641      0.00001259513978
  B           0.65885081483532     -0.28554357323106     -0.00004474506853
  C           0.64922681668109     -1.78053140638870     -0.00003522730982
  C           1.90941836865666     -2.42524596719616     -0.00007273395546
  C           3.09580357361469     -1.72360680540961     -0.00010634727225
  C           3.15708670641038     -0.29766244940239     -0.00009385874157
  C           1.96831787971716      0.44429998904671     -0.00006905330422
  C          -0.61398453252859     -2.40654960843945      0.00004889497046
  C          -1.78178597965329     -1.65921956004156      0.00009161212108
  C          -1.80188119497299     -0.24676513009508      0.00007060954153
  H          10.18261329026908      2.37396278894330      0.00013616137975
  H          10.08671215410574     -0.15326730718774      0.00013834791304
  H           7.88800597824780     -1.26565894116110      0.00002306927399
  H           5.72122337045697     -1.23692468915118     -0.00002381181934
  H           5.62269031170865      3.64851040900116     -0.00005935953879
  H           8.06829592305430      3.64336950667236      0.00003231451733
  H           3.15576407457497      3.66460003873741     -0.00005389458972
  H           0.70462038595901      3.64810751953932      0.00000122489616
  H          -1.42565366560131      2.53065670042751      0.00006146047621
  H           1.96953751913217     -3.51324417242217     -0.00008102979191
  H           4.01426725005841     -2.29943032584711     -0.00014643123114
  H          -0.69797398984980     -3.49270037813810      0.00007459818901
  H          -2.73151572685175     -2.18298368842299      0.00015401275383
  H          -2.77351086088360      0.24665736776468      0.00011010589868
38
BNPAH_30549
  C           9.19684649344795      1.97127672636604     -0.00007999832382
  C           9.26997072353578      0.56823231276108     -0.00007779080021
  C           8.11874132323897     -0.17206665349574     -0.00001803258307
  C           6.85810144950655      0.45631227034332      0.00000946011472
  C           5.63388402120850     -0.25992721235351      0.00003459968898
  C           4.41222621092683      0.35100549269501      0.00006885323253
  C           4.38140889365063      1.80244303479814      0.00006443308235
  N           5.58269353403859      2.45617856515138      0.00005523797895
  C           6.80501466285618      1.85915628527215      0.00001802258499
  C           7.98725201892951      2.61539240112312     -0.00004084320212
  C           3.20586411486969      2.51839044982034      0.00006883136397
  C           1.98035749998246      1.83729825146804      0.00005203403522
  C           0.73376953912802      2.55764124041614      0.00002809770045
  C          -0.48769589464604      1.94432449557725     -0.00000536036844
  C          -0.62700482431467      0.51787053274621     -0.00001642123004
  B           0.64110287520395     -0.28505405616893      0.00003131075393
  C           0.59585856366358     -1.77890902628314      0.00002405877485
  C           1.83781862959032     -2.44955050529378      0.00005820591008
  C           3.04494923759680     -1.77345661591581      0.00007344691595
  C           3.13905353317735     -0.35601452188989      0.00005903892441
  C           1.96540308481448      0.41211355379542      0.00006192234956
  C          -0.68397205454271     -2.37571810627395     -0.00003028590831
  C          -1.83398963823017     -1.60283382163536     -0.00008801093654
  C          -1.81876239919165     -0.18953777744501     -0.00008394878800
  H          10.10962836791820      2.55426007787203     -0.00012237106758
  H          10.23511139759309      0.07902979813738     -0.00010267787533
  H           8.15899506035891     -1.25515323549961     -0.00000410537120
  H           5.68823880146083     -1.34168601834351      0.00002320699351
  H           5.55110990769725      3.46323114003256      0.00004247963621
  H           7.93522048412085      3.69813755781734     -0.00003772331753
  H           3.23476242459141      3.60341230719974      0.00006088955009
  H           0.78431543595090      3.64131794410887      0.00003280001175
  H          -1.37470455286153      2.57698871486755     -0.00003120073765
  H           1.87492095614577     -3.53853847251878      0.00006574320502
  H           3.95048987062224     -2.36796028502445      0.00009747445882
  H          -0.79264044925747     -3.45958931546470     -0.00002714833199
  H          -2.79583549337313     -2.10333192586028     -0.00012528300199
  H          -2.77824280940825      0.32719439709734     -0.00013894542250
38
BNPAH_30552
  C           9.21069985047038      1.98200784886243     -0.00000371613373
  C           9.26858731791679      0.56422043998132     -0.00007316100855
  C           8.12397184837233     -0.16770322013580     -0.00004215172398
  C           6.85145019395354      0.46999152500864      0.00000995868863
  C           5.65745397972368     -0.25848045379340      0.00002016366709
  C           4.41581499185627      0.34899459937002      0.00001919608212
  C           4.38305348802166      1.77589189466150      0.00001047976155
  C           5.54566958537989      2.51588332061798      0.00004699480880
  C           6.79555433128803      1.88995394036041      0.00004839817845
  C           8.01365833245256      2.62530337252639      0.00004679889038
  N           3.16394424733245      2.43150350188894      0.00000113517016
  C           1.97834591084241      1.79414232601100     -0.00001058969305
  C           0.75906209696857      2.55383911614745     -0.00002388382652
  C          -0.46889679778359      1.95238661227002     -0.00003053150223
  C          -0.62093614420575      0.52835638269562     -0.00002017212185
  B           0.63721092361499     -0.28762529434801     -0.00000722810821
  C           0.58728737491331     -1.78010530933938      0.00001659574276
  C           1.82654946027086     -2.45027583919275      0.00004282399959
  C           3.04520601953604     -1.78227762000136      0.00003445163632
  C           3.14975844399806     -0.37354419955582      0.00001556581846
  C           1.96751207789874      0.38973928668837     -0.00000230752217
  C          -0.69689043768371     -2.36856025902714      0.00000532543634
  C          -1.84111583052334     -1.58671294717376     -0.00001646507648
  C          -1.81681383310131     -0.17315250346427     -0.00002231420242
  H          10.13207170176835      2.55174217561149     -0.00000510261856
  H          10.23201154537414      0.06962116686820     -0.00013841685170
  H           8.16178615440433     -1.25120053145602     -0.00008411807365
  H           5.71930707215656     -1.33933585526663     -0.00000236668641
  H           5.49400266940861      3.60006245967746      0.00006178014756
  H           7.96994225456601      3.70855422527960      0.00009866613110
  H           3.17772214896138      3.43872275658570     -0.00000096450858
  H           0.83192838679339      3.63633834938113     -0.00003951255963
  H          -1.34708716480795      2.59623605442513     -0.00004444047099
  H           1.85929033894296     -3.53939306068430      0.00006620760944
  H           3.94725111078915     -2.38035859300633      0.00005816918783
  H          -0.81403789397245     -3.45122908488987      0.00001929961440
  H          -2.80642556069858     -2.07971307639766     -0.00002427442741
  H          -2.77364019519879      0.34805849281368     -0.00003129345487
