042
BNPAH_000370_PAH52   C24_H16_N01_B01 -1003.17253346     0.00100000    10.99774000  5252.53341844     8.37044481   227.77140490 21976.59982275    30.53798499     0.04866538     1.32425235   127.77092920    -4.39650000    -0.16156840  -101.38569934  -424.19776602    -2.74060000    -0.10071519   -63.19973788  -264.42770330     1.65590000     0.06085320    38.18596145   159.77006272
C     -2.55494600    -0.53473000     0.00006600
C     -2.65971100     0.88611300     0.00015800
C     -1.52657600     1.66878200     0.00016100
C     -0.22799000     1.07277600     0.00007000
C      0.94117600     1.86435800     0.00006800
C      2.25508500     1.36206900    -0.00002500
C      2.31632700    -0.09742600    -0.00008500
C      3.57339000    -0.76970900    -0.00012300
C      4.72096700    -0.04906100    -0.00008800
C      4.73284700     1.38428700    -0.00004000
C      3.52877600     2.15853700    -0.00004200
C      3.64782900     3.62476000    -0.00006200
C      2.54310800     4.52282500    -0.00016500
C      2.61033000     5.91168600    -0.00017500
B      3.93967100     6.64013900    -0.00007600
C      5.10174500     5.68987800     0.00000700
C      4.96684200     4.28307400     0.00000300
C      6.14790500     3.46632300     0.00004500
C      7.46332800     4.01639300     0.00010400
C      8.58442500     3.23125400     0.00012700
N      8.43291600     1.87511200     0.00009100
C      7.21764600     1.28910100     0.00003500
C      6.03288700     2.02944300     0.00001000
C      1.16495700    -0.89469900    -0.00009100
C     -0.12854800    -0.35733500    -0.00002000
C     -1.32015500    -1.14372500    -0.00002000
H     -3.46472100    -1.14023100     0.00006500
H     -3.64772100     1.35246000     0.00022600
H     -1.60630000     2.75918900     0.00023100
H      1.54545000     4.11911700    -0.00026400
H      3.59168900    -1.86165600    -0.00016300
H      5.65953600    -0.60083200    -0.00010200
H      0.73371200     2.92170000     0.00016100
H      1.63555200     6.41754600    -0.00026200
H      4.06168700     7.84595800    -0.00007900
H      6.12464600     6.07741700     0.00006600
H      7.60170800     5.09457200     0.00013000
H      9.60387800     3.61438500     0.00017100
H      9.25760000     1.28149000     0.00010800
H      7.24415800     0.20305800     0.00001400
H      1.29384700    -1.98078500    -0.00014500
H     -1.23512100    -2.23364000    -0.00008800
