038
BNPAH_000538_PAH48   C22_H14_N01_B01  -925.80529901     0.00100000    11.77655000  4792.72910258     7.63769999   207.83240277 20052.77856519    30.33372850     0.04833987     1.31539495   126.91632004    -4.16510000    -0.15306460   -96.04948853  -401.87105999    -3.24490000    -0.11924788   -74.82917224  -313.08525667     0.92020000     0.03381673    21.22031628    88.78580332
C      1.93223700     1.62962500    -0.00011100
C      0.74602600     2.35864800    -0.00026400
C     -0.55021000     1.80284300    -0.00023400
C     -0.82571100     0.41071300    -0.00003600
C      0.37059100    -0.42786500     0.00007900
C      0.21924100    -1.81485700     0.00017700
C     -1.01429100    -2.44111100     0.00014900
C     -2.19237400    -1.67076400     0.00006200
N     -3.44214500    -2.38078700     0.00001200
C     -3.44243000    -3.75666000    -0.00001400
C     -4.59385600    -4.51219900    -0.00008100
C     -5.83755500    -3.88427500    -0.00012100
C     -5.88292000    -2.48538900    -0.00009000
C     -7.13870000    -1.79560100    -0.00011200
C     -7.17734100    -0.43625700    -0.00005500
C     -5.97372200     0.34221200     0.00002000
C     -6.05742700     1.73924300     0.00011000
C     -4.88421900     2.48384400     0.00021800
C     -3.63876400     1.86175300     0.00020500
C     -3.45756300     0.45707100     0.00007100
C     -2.16171000    -0.22892500     0.00002700
C     -4.68495500    -0.30668600     0.00001700
C     -4.66785800    -1.71927600    -0.00002800
B      1.80502200     0.12944300     0.00006800
H      2.87243600     2.19320600    -0.00015300
H      0.77955400     3.45671200    -0.00042800
H     -2.78769200     2.51928300     0.00032600
H      1.12121000    -2.43310800     0.00025400
H     -1.01461600    -3.52506500     0.00020400
H     -2.47796300    -4.24132000     0.00001300
H     -4.49801800    -5.59850200    -0.00010100
H     -6.76566700    -4.45821600    -0.00017100
H     -8.05347100    -2.39154800    -0.00016300
H     -8.13187800     0.09486200    -0.00005700
H     -7.03757500     2.22077500     0.00011800
H     -4.92519300     3.57535600     0.00032100
H     -1.32284600     2.55505100    -0.00041600
H      2.73758300    -0.64813600     0.00018200
