042
BNPAH_000012_PAH57   C24_H16_N01_B01 -1003.17816850     0.00000000    20.16503000  5256.06946383     8.37607986   227.92474234 21991.39463666    30.55854339     0.04869814     1.32514385   127.85694554    -4.01090000    -0.14739786   -92.49355202  -386.99302166    -3.62450000    -0.13319792   -83.58295627  -349.71108903     0.38640000     0.01419994     8.91059575    37.28193263
B      2.85604800    -0.04159700     0.00000100
C      2.71752400    -1.55997600     0.00000100
C      1.45650800    -2.17891300     0.00000000
C      1.35884100    -3.61714500     0.00000100
C      0.16341000    -4.27993700     0.00000000
C     -1.06602400    -3.54729300    -0.00000000
C     -2.29718200    -4.21328300    -0.00000100
C     -3.52247200    -3.53114300    -0.00000100
C     -4.76107900    -4.23090900    -0.00000100
C     -5.96534500    -3.56943200    -0.00000100
C     -6.01470000    -2.14137900    -0.00000100
C     -7.24737300    -1.42260500    -0.00000000
N     -8.45124400    -2.08575800     0.00000100
C     -9.66885000    -1.48928400     0.00000100
C     -9.75095900    -0.10533200     0.00000100
C     -8.57014000     0.64189600     0.00000000
C     -7.30294200     0.01274600    -0.00000000
C     -6.07210400     0.71850400    -0.00000100
C     -4.87491100     0.03428700    -0.00000100
C     -4.79203200    -1.38520100    -0.00000100
C     -3.51409800    -2.08122000    -0.00000100
C     -2.27988500    -1.42487600    -0.00000100
C     -1.03161000    -2.09146700    -0.00000100
C      0.23352600    -1.40643300    -0.00000000
C      0.32899600     0.02425200    -0.00000000
C      1.52508300     0.71359500     0.00000000
H      3.93287400     0.51673100     0.00000200
H      3.57574600    -2.24558200     0.00000100
H      2.29516500    -4.18332200     0.00000100
H      0.12393100    -5.37241900     0.00000000
H     -2.30322200    -5.30722400    -0.00000000
H     -4.74127800    -5.32373200    -0.00000100
H     -6.88140900    -4.16812300    -0.00000000
H     -8.41625300    -3.10231200     0.00000100
H    -10.53390100    -2.15179500     0.00000200
H    -10.72943900     0.37507700     0.00000200
H     -8.61407000     1.73310700     0.00000000
H     -6.08847900     1.80984800    -0.00000100
H     -3.95140700     0.61299500    -0.00000200
H     -2.26659700    -0.33685700    -0.00000100
H     -0.60810100     0.59253800    -0.00000100
H      1.45327400     1.80897400     0.00000000
