042
BNPAH_000171_PAH56   C24_H16_N01_B01 -1003.23770768     3.41100000     5.18507000  5293.43086760     8.43561904   229.54488613 22147.71475004    30.77576086     0.04904430     1.33456329   128.76578344    -5.13820000    -0.18882537  -118.48970780  -495.76093742    -2.56960000    -0.09443106   -59.25638417  -247.92871137     2.56860000     0.09439431    59.23332362   247.83222604
C      1.24267400     0.35355900     0.33830000
C      2.51228200     0.25390600    -0.19565300
C      3.16142400    -1.00388100    -0.32794100
C      4.52124300    -1.07862000    -0.74834600
C      5.18340100    -2.28189700    -0.73393200
C      4.51617600    -3.50903500    -0.43910900
B      5.32053000    -4.83833600    -0.35129400
C      4.55056200    -6.08305500    -0.01019700
C      3.16765800    -6.01061800     0.03167800
C      2.41074300    -4.76446300    -0.12655800
C      1.05164800    -4.88523200    -0.36665600
C      0.33973900    -6.11859500    -0.29519300
C     -1.06824100    -6.21163800    -0.52386400
C     -1.72592300    -7.40810500    -0.40901200
C     -1.02066500    -8.60090200    -0.04696500
C     -1.69274700    -9.84323600     0.08855500
C     -1.01115200   -10.99293000     0.44546000
C      0.37996300   -10.94351500     0.68582800
C      1.06485800    -9.74741600     0.55941900
C      0.39333400    -8.55353700     0.18843400
C      1.06037100    -7.28542300     0.03562700
N      2.41205600    -7.16564600     0.17657800
C      3.12635800    -3.48377900    -0.17419300
C      2.46085500    -2.20952200     0.02818600
C      1.18746900    -2.05414300     0.65037300
C      0.59293300    -0.81305200     0.79959200
H      0.76100200     1.32859600     0.44389200
H      3.05611800     1.15195500    -0.50101700
H      5.03656600    -0.15444400    -1.02441100
H      6.24936100    -2.32342400    -0.97313700
H      6.51729100    -4.82837700    -0.53171100
H      4.99930900    -7.07694200     0.11456600
H      0.47892000    -4.00035000    -0.64514000
H     -1.61092700    -5.30158000    -0.79076300
H     -2.80190900    -7.47056000    -0.58594500
H     -2.76983100    -9.87587100    -0.09415800
H     -1.54688300   -11.93966400     0.54556700
H      0.91662500   -11.84948900     0.97558900
H      2.13877100    -9.73963600     0.76442900
H      2.95339300    -8.01517400     0.30752400
H      0.68635000    -2.92525600     1.07203500
H     -0.37637300    -0.73552500     1.29851100
