042
BNPAH_000332_PAH52   C24_H16_N01_B01 -1003.15601094     0.01000000    11.82313000  5242.16537966     8.35392229   227.32180419 21933.21994850    30.47770570     0.04856932     1.32163840   127.51872065    -4.20430000    -0.15450518   -96.95346201  -405.65328504    -3.32040000    -0.12202245   -76.57024362  -320.36989930     0.88390000     0.03248273    20.38321839    85.28338573
C     -2.50985100    -0.58164100     0.00081500
C     -2.64223400     0.84073600     0.00196400
C     -1.53390100     1.65631200     0.00201000
C     -0.22383300     1.08550200     0.00087000
C      0.94003300     1.86499800     0.00081400
C      2.25674600     1.36610100    -0.00036300
N      2.30521900    -0.06206100    -0.00104300
C      3.51960400    -0.72402100    -0.00148200
C      4.67505100    -0.02435400    -0.00109600
C      4.72693600     1.39663000    -0.00053900
C      3.50143900     2.14795700    -0.00062000
C      3.57394600     3.63181300    -0.00089800
C      2.49024600     4.53578100    -0.00211400
B      2.60307200     6.03978700    -0.00213400
C      4.02566800     6.57113000    -0.00078800
C      5.05950000     5.65877400     0.00010200
C      4.91462700     4.23713200    -0.00002000
C      6.11615600     3.44006400     0.00052200
C      7.42847500     4.01160900     0.00128100
C      8.57054300     3.24037000     0.00157400
C      8.47777900     1.83104900     0.00110800
C      7.23090000     1.24361200     0.00037300
C      6.03096000     2.01393600     0.00007500
C      1.19100000    -0.84808300    -0.00110400
C     -0.09983600    -0.34397500    -0.00024500
C     -1.26716200    -1.16912600    -0.00025800
H     -3.40831000    -1.20245400     0.00081800
H     -3.64153000     1.28156200     0.00281700
H     -1.63735300     2.74344400     0.00288200
H      1.47394500     4.17234200    -0.00340400
H      3.46494100    -1.81099100    -0.00193400
H      5.59198000    -0.60681200    -0.00125800
H      0.79929500     2.93143600     0.00193600
H      1.61392000     6.74484500    -0.00322200
H      4.30813700     7.63144300    -0.00061700
H      6.07952300     6.04587500     0.00086900
H      7.54690600     5.09251500     0.00162100
H      9.55004200     3.72512500     0.00215500
H      9.37799200     1.21262700     0.00133400
H      7.19076500     0.15491400     0.00006100
H      1.39037000    -1.91978200    -0.00176800
H     -1.15787700    -2.25615100    -0.00109500
