036
BNPAH_000092_PAH20   C20_H14_N01_B01  -849.64173343     0.00100000     4.37852000  4461.58064983     7.10998134   193.47244686 18667.25343889    30.55877157     0.04869850     1.32515375   127.85790025    -5.11050000    -0.18780741  -117.85093062  -493.08829370    -2.51770000    -0.09252377   -58.05954173  -242.92112260     2.59280000     0.09528364    59.79138889   250.16717110
C      2.15492600     0.52543700    -0.00012400
C      2.17298800    -0.89014500    -0.00030400
C      1.04731000    -1.71123800    -0.00027300
C     -0.29352700    -1.21617300    -0.00003600
B     -0.34322400     0.33739600     0.00009900
C     -1.69674000     0.97667400     0.00022700
C     -2.78446200     0.14021300     0.00018300
C     -2.73629000    -1.27278400     0.00007500
N     -1.51699700    -1.98066300     0.00003200
C     -1.60480000    -3.43686400     0.00007100
C     -0.47284600    -4.28152000     0.00024200
C     -0.54455000    -5.66931900     0.00025900
C     -1.78069600    -6.31315800     0.00011400
C     -2.91270100    -5.51994900    -0.00001300
C     -2.86763200    -4.10616200    -0.00001600
C     -4.11771800    -3.36532700    -0.00007200
C     -5.38100800    -4.00290100    -0.00015700
C     -6.55957100    -3.27756100    -0.00017100
C     -6.49468700    -1.87581400    -0.00009400
C     -5.26669200    -1.23634400    -0.00000800
C     -4.03734500    -1.95618200     0.00000400
C      0.93936000     1.16518000     0.00006800
H      3.10979600     1.06309900    -0.00016800
H      3.14163700    -1.39973300    -0.00049200
H      0.51963000    -3.88516100     0.00039700
H     -1.88245700     2.05642000     0.00031800
H     -3.77773700     0.57742800     0.00023700
H      1.34294500    -2.74668400    -0.00048500
H      0.38739900    -6.23865800     0.00039300
H     -1.86023600    -7.40192800     0.00012200
H     -3.88502200    -6.00780300    -0.00009500
H     -5.44463300    -5.08965500    -0.00021100
H     -7.52262800    -3.79243500    -0.00023800
H     -7.40936500    -1.27891200    -0.00010300
H     -5.28291400    -0.15045400     0.00004300
H      0.91433000     2.26166900     0.00017500
