042
BNPAH_000218_PAH56   C24_H16_N01_B01 -1003.20948125     3.15700000     9.27935000  5275.71850990     8.40739260   228.77680561 22073.60624542    30.67278203     0.04888019     1.33009771   128.33492001    -4.67730000    -0.17188761  -107.86110122  -451.29084749    -2.93960000    -0.10802831   -67.78878694  -283.62828454     1.73770000     0.06385930    40.07231428   167.66256295
C      1.23145500     0.36733200     0.28275700
C      2.51113900     0.26310900    -0.22902300
C      3.16205500    -0.99456200    -0.33609100
C      4.52781800    -1.07535900    -0.74081500
C      5.18628700    -2.27679300    -0.70773800
C      4.51546300    -3.49760700    -0.38954700
C      5.31333300    -4.70670700    -0.32782600
C      4.80113600    -5.93826800    -0.03249500
B      3.27323800    -6.07452400     0.06994600
C      2.43335800    -4.77820800    -0.07752000
C      1.05407600    -4.93340700    -0.28898900
C      0.38317100    -6.17480700    -0.22051500
C     -1.02293000    -6.23165500    -0.44433700
C     -1.76009400    -7.39285300    -0.36291700
C     -1.10973500    -8.61627700    -0.03532200
C     -1.77403800    -9.85299100     0.08811100
C     -1.08878700   -11.02758000     0.41595800
C      0.28077700   -10.96520400     0.62755300
N      0.91001900    -9.77666100     0.50547400
C      0.31563400    -8.59129100     0.18086400
C      1.11236900    -7.39950000     0.07030800
C      2.50898200    -7.37579100     0.18955600
C      3.11160200    -3.48913900    -0.14192200
C      2.46189000    -2.19773300     0.02453100
C      1.17740600    -2.03767400     0.61858500
C      0.57631800    -0.79570000     0.74247700
H      0.74654200     1.34292300     0.36849500
H      3.05867100     1.15860000    -0.53634800
H      5.05030800    -0.15767200    -1.02396900
H      6.25259900    -2.32483800    -0.94667000
H      6.38796500    -4.56507700    -0.50200600
H      5.50213700    -6.77913000     0.04574200
H      0.43195900    -4.08029400    -0.57522800
H     -1.53124900    -5.29411800    -0.68765700
H     -2.83731200    -7.39497700    -0.53824000
H     -2.85351900    -9.88557700    -0.07859700
H     -1.60736700   -11.98163600     0.51087000
H      0.89979300   -11.82161000     0.89353200
H      1.91767800    -9.72845700     0.66390000
H      3.04707200    -8.32799600     0.32787100
H      0.67250000    -2.90893000     1.03340700
H     -0.40438900    -0.71621300     1.21878700
