036
BNPAH_000014_PAH10   C20_H14_N01_B01  -849.63379481     0.00000000    12.68102000  4456.59908980     7.10204272   193.25642597 18646.41059172    30.52465130     0.04864413     1.32367415   127.71514104    -4.08140000    -0.14998868   -94.11932066  -393.79523763    -3.69230000    -0.13568952   -85.14646142  -356.25279460     0.38910000     0.01429916     8.97285923    37.54244302
B      1.92362300    -1.15359400    -0.00000400
C      0.62349600    -1.92970400    -0.00003600
C     -0.61757000    -1.27701200    -0.00000700
C     -1.86205800    -1.96577700     0.00000600
C     -3.09754900    -1.32139400     0.00002300
C     -4.34694300    -2.00310600     0.00003400
C     -5.56738000    -1.32931400     0.00003300
C     -6.83942700    -1.96403700     0.00004700
C     -8.04039200    -1.24481600     0.00002700
C     -7.99002500     0.19429800    -0.00000300
C     -9.17522400     0.96182100    -0.00004300
C    -10.40349300     0.32511900    -0.00004400
C    -10.48147700    -1.09513800    -0.00000800
C     -9.33552400    -1.85748800     0.00002900
N     -6.75825500     0.78672100     0.00001800
C     -5.55861000     0.12972200     0.00002000
C     -4.35156100     0.82943100     0.00002600
C     -3.12557600     0.14509300     0.00002900
C     -1.89090200     0.84769700     0.00003100
C     -0.66553500     0.19887700     0.00001400
C      0.55707400     0.98272900    -0.00000900
C      1.79143200     0.40429500    -0.00004700
H      3.00942400    -1.69032200    -0.00012500
H      0.58277800    -3.02628800    -0.00007000
H     -1.84047200    -3.05920100     0.00000500
H     -4.35145500    -3.09578900     0.00005200
H     -6.87815900    -3.05640900     0.00009000
H     -9.11202000     2.05333400    -0.00006700
H    -11.31991700     0.91862700    -0.00008000
H    -11.46045800    -1.57878300    -0.00000800
H     -9.39202400    -2.94836900     0.00006200
H     -6.72761000     1.80431800     0.00000700
H     -4.35573800     1.92349700     0.00003200
H     -1.91369500     1.94183500     0.00004500
H      0.42789300     2.07266100    -0.00000300
H      2.65870900     1.07646700    -0.00007600
