038
BNPAH_000001_PAH49   C22_H14_N01_B01  -925.93337300     0.00000000     1.86452000  4873.09675932     7.76577400   211.31747419 20389.03684099    30.84238455     0.04915047     1.33745237   129.04453696    -5.36760000    -0.19725566  -123.77979751  -517.89467278    -2.27790000    -0.08371128   -52.52962232  -219.78393977     3.08970000     0.11354438    71.25017519   298.11073301
B     -7.34739500    -1.70570600     0.00000000
N     -6.05057800    -2.30238800     0.00000000
C     -4.85464800    -1.61018300    -0.00000000
C     -4.87003700    -0.18989700    -0.00000000
C     -6.14277300     0.48515500    -0.00000000
C     -7.34354400    -0.17871300     0.00000000
C     -3.60787700     0.49929000    -0.00000000
C     -2.38028400    -0.23388900    -0.00000000
C     -2.40304700    -1.66941300    -0.00000000
C     -3.63716200    -2.31485800    -0.00000000
C     -1.13864600    -2.41716700    -0.00000000
C     -1.11849400    -3.83183300    -0.00000000
C      0.06978500    -4.54750700    -0.00000000
C      1.29333700    -3.85938200    -0.00000000
C      1.29998100    -2.47215700     0.00000000
C      0.10196000    -1.71996100     0.00000000
C      0.11754500    -0.25229000     0.00000000
C     -1.12130300     0.46227000    -0.00000000
C     -1.10315500     1.89381900    -0.00000000
C     -2.34806100     2.59756600    -0.00000000
C     -3.54131900     1.93228700    -0.00000000
C      0.12712400     2.58428000     0.00000000
C      1.32317700     1.88064400     0.00000000
C      1.31451700     0.48033900     0.00000000
H     -8.30917800    -2.43006600     0.00000100
H     -5.94883200    -3.31400700     0.00000000
H     -6.13431600     1.57822500    -0.00000000
H     -8.25756900     0.42298500     0.00000000
H     -3.68982400    -3.40476400    -0.00000000
H     -2.05684300    -4.38676600    -0.00000000
H      0.04928200    -5.63972400    -0.00000000
H      2.23717000    -4.40951700    -0.00000000
H      2.26049900    -1.95672300     0.00000000
H     -2.32905300     3.69041300    -0.00000100
H     -4.46456000     2.51102400    -0.00000100
H      0.12240900     3.67717200     0.00000000
H      2.27669000     2.41380800     0.00000100
H      2.27172000    -0.04119600     0.00000100
