030
BNPAH_000021_PAH07   C16_H12_N01_B01  -696.13649871     0.00000000     5.89272000  3686.67035784     5.87508318   159.86915644 15425.02877720    30.72225298     0.04895903     1.33224297   128.54190647    -4.90040000    -0.18008638  -113.00590948  -472.81672526    -2.11900000    -0.07787181   -48.86530124  -204.45242038     2.78140000     0.10221457    64.14060824   268.36430488
C      4.78531900     0.04868900     0.00002900
B      3.89260300     1.27146900    -0.00041600
C      2.37885700     0.96817300    -0.00006200
C      1.45402600     1.99465800    -0.00040500
N      0.12065100     1.77837100    -0.00011000
C     -0.44084800     0.50805700     0.00056100
C     -1.87303200     0.37088900     0.00083800
C     -2.42410200    -0.95143300     0.00152400
C     -3.83385700    -1.11454900     0.00180900
C     -4.68034200    -0.02144000     0.00143700
C     -4.13993000     1.28418500     0.00076200
C     -2.76929000     1.47402100     0.00046900
C     -1.53815500    -2.07070300     0.00190400
C     -0.17773600    -1.90043600     0.00162800
C      0.42416000    -0.60262100     0.00094600
C      1.87259600    -0.39998200     0.00064600
C      2.79412300    -1.44204800     0.00100100
C      4.19656800    -1.21027800     0.00069700
H      5.88060500     0.08456700    -0.00014100
H      4.27967100     2.42040300    -0.00100600
H      1.76182800     3.04302500    -0.00093800
H     -0.50440000     2.57673600    -0.00039300
H     -4.24123700    -2.12877600     0.00233300
H     -5.76346900    -0.16234900     0.00166400
H     -4.80635300     2.14968800     0.00046800
H     -2.39561900     2.50189200    -0.00005300
H     -1.96586100    -3.07619700     0.00242600
H      0.47025800    -2.77682400     0.00193400
H      2.45224900    -2.47871400     0.00153200
H      4.83025600    -2.10664100     0.00102500
