042
BNPAH_000197_PAH35   C24_H16_N01_B01 -1003.20698955     5.51500000     6.68552000  5274.15494844     8.40490091   228.70900317 22067.06430427    30.66369156     0.04886570     1.32970351   128.29688549    -4.34960000    -0.15984485  -100.30415963  -419.67260391    -2.78980000    -0.10252326   -64.33431684  -269.17478168     1.55980000     0.05732159    35.96984279   150.49782223
C      0.00721400     0.72116700     0.04612800
C      0.00444300    -0.74590900     0.03055300
C     -0.10069600    -2.94721800    -1.15013500
C      0.06012700     2.95571100    -1.09637900
C     -0.19283200     0.61997600     2.46082700
C      0.23263700    -0.74992100     2.49759700
C     -0.31280500     1.38690100     1.27435900
C      0.28431400    -1.45563300     1.22821400
C     -0.42647300    -3.71403600    -2.30080900
C      0.39770300     3.69895300    -2.27780300
C     -0.35816700    -1.53576300    -1.13786400
C      0.35404900     1.52944800    -1.09193000
C     -0.50558600     3.61340400     0.02197800
C      0.41347300    -3.57426900     0.02312400
B     -0.64781500     2.88880700     1.31124200
C      0.53532100    -2.86087700     1.18563300
C     -1.06136600    -3.13597400    -3.38281800
C      1.06374100     3.13175600    -3.33838900
C     -1.06446200    -0.98926400    -2.24632700
C      1.09687000     0.99800500    -2.19366300
C     -1.41152900    -1.76743600    -3.33574900
C      1.45129100     1.76564600    -3.28067500
N     -0.40464900     1.23922000     3.66567500
C      0.47286600    -1.32872100     3.75059000
C     -0.18990000     0.68475500     4.87332700
C      0.26735700    -0.61856300     4.94613200
H      0.13700700     4.76083300    -2.29656400
H     -0.19309800    -4.78213100    -2.29870700
H     -0.72353400     4.67917000    -0.11504900
H      0.63389900    -4.64427800     0.00150500
H     -0.97774400     3.44103600     2.35459400
H      0.82978300    -3.38145100     2.09831500
H     -1.32008400    -3.73827100    -4.25706800
H      1.32353400     3.73558700    -4.21220900
H     -1.35234000     0.06093200    -2.22518900
H      1.42289400    -0.04190200    -2.15495300
H     -1.96597700    -1.31854600    -4.16310000
H      2.04114800     1.32768400    -4.08949200
H     -0.38824900     1.31199100     5.74284500
H      0.45335500    -1.07831000     5.91641100
H      0.81772800    -2.36167500     3.81366700
H     -0.70345000     2.21916700     3.56734600
