042
BNPAH_000615_PAH60   C24_H16_N01_B01 -1003.18257186     0.00200000     9.59045000  5258.83260933     8.38048321   228.04456367 22002.95563744    30.57460819     0.04872374     1.32584049   127.92416067    -4.38930000    -0.16130380  -101.21966339  -423.50307162    -2.92210000    -0.10738520   -67.38522735  -281.93979122     1.46720000     0.05391861    33.83443604   141.56328041
C     -2.80716100    -0.08680700     0.00004400
C     -2.77813200     1.32287500    -0.00018800
C     -1.55954300     1.99442000    -0.00023000
C     -0.32507900     1.30271000    -0.00005100
C     -0.37465400    -0.12114400     0.00018700
C      0.86777100    -0.83398000     0.00040900
C      2.11925600    -0.25629100     0.00037000
C      2.37654700     1.16804100     0.00008200
C      3.65602500     1.87979100    -0.00000700
C      4.97563100     1.26303800    -0.00009200
C      5.18305300    -0.14672500    -0.00034800
C      6.40871100    -0.76580500    -0.00040100
C      7.56547300     0.03457300    -0.00021000
C      7.39724100     1.38841700    -0.00002900
N      6.16788700     2.01802700     0.00000300
C      6.15322100     3.44084100     0.00009100
C      7.35345500     4.19189000     0.00019200
C      7.33201600     5.57493400     0.00023000
C      6.09571300     6.24371500     0.00016200
C      4.92330400     5.51733500     0.00006300
C      4.89311400     4.08865100     0.00002600
C      3.65149800     3.33968100    -0.00005000
C      2.44120800     4.08013300    -0.00016200
C      1.19336400     3.50451600    -0.00021200
B      1.06739000     1.99677700    -0.00007700
C     -1.61841600    -0.80172400     0.00023400
H     -3.76552700    -0.61335700     0.00008000
H     -3.71601300     1.88520100    -0.00033400
H     -1.56116800     3.08821500    -0.00040900
H      0.81989300    -1.92809500     0.00063800
H      4.30909500    -0.77025500    -0.00054400
H      2.88719200    -1.02367200     0.00063900
H      6.47083700    -1.85538100    -0.00059600
H      8.57379800    -0.37957400    -0.00023500
H      8.25844000     2.04197600     0.00007800
H      8.33235300     3.72022700     0.00024100
H      8.27206600     6.12968600     0.00030900
H      6.05737400     7.33513000     0.00019000
H      3.98703400     6.06829800     0.00002100
H      2.50993900     5.16765800    -0.00022200
H      0.33936300     4.19211500    -0.00031200
H     -1.63165600    -1.89605800     0.00042300
