042
BNPAH_000147_PAH41   C24_H16_N01_B01 -1003.26450214     0.00000000     1.79642000  5310.24464956     8.46241351   230.27400072 22218.06361376    30.87351540     0.04920008     1.33880233   129.17478843    -4.80770000    -0.17667972  -110.86819668  -463.87253490    -2.60110000    -0.09558866   -59.98279143  -250.96799936     2.20660000     0.08109105    50.88540524   212.90453554
C      2.61446300     0.47113600     0.00000300
C      2.65787100    -0.91484600     0.00000200
C      1.48333900    -1.70334100     0.00000100
C      1.59713900    -3.14580700     0.00000000
C      0.49832700    -3.94596500    -0.00000100
B     -0.90026500    -3.31997200    -0.00000200
C     -2.20651300    -4.06048500    -0.00000200
C     -3.42600600    -3.37616500    -0.00000200
C     -4.70080000    -4.01911900    -0.00000200
C     -5.89889900    -3.32243900    -0.00000100
C     -5.85750900    -1.86476900    -0.00000200
C     -7.09453600    -1.12121700    -0.00000100
C     -8.29928000    -1.75017000    -0.00000000
C     -8.39679300    -3.19343400     0.00000100
C     -9.65978300    -3.82626700     0.00000200
C     -9.76956700    -5.21096900     0.00000200
C     -8.60516000    -5.99690200     0.00000200
C     -7.35264200    -5.39172600     0.00000100
C     -7.21096800    -3.98712400    -0.00000000
C     -4.63402100    -1.21206200    -0.00000200
C     -3.40191200    -1.92215400    -0.00000200
C     -2.19185500    -1.22522300    -0.00000200
N     -0.97283700    -1.82491300    -0.00000100
C      0.21854900    -1.04288600    -0.00000000
C      0.19232700     0.36776900     0.00000000
C      1.36659900     1.11276100     0.00000200
H      3.53757700     1.05469300     0.00000400
H      3.61960000    -1.43445500     0.00000300
H      2.61528900    -3.55123500     0.00000100
H      0.63698500    -5.03220600    -0.00000100
H     -2.24335600    -5.15561800    -0.00000200
H     -4.69877300    -5.11040400    -0.00000200
H     -7.03795300    -0.02947300    -0.00000100
H     -9.22696400    -1.17205300     0.00000000
H    -10.55819700    -3.20312000     0.00000200
H    -10.75381000    -5.68527700     0.00000300
H     -8.67955100    -7.08692700     0.00000200
H     -6.46493200    -6.02594900     0.00000000
H     -4.61600500    -0.11811600    -0.00000200
H     -2.22673600    -0.13774200    -0.00000200
H     -0.75133000     0.91072400    -0.00000000
H      1.30658900     2.20343700     0.00000200
