042
BNPAH_000335_PAH58   C24_H16_N01_B01 -1003.21270617     0.00200000     6.52031000  5277.74217796     8.41061752   228.86456017 22082.07327258    30.68454755     0.04889894     1.33060791   128.38414695    -4.67920000    -0.17195743  -107.90491626  -451.47416962    -2.64860000    -0.09733426   -61.07816746  -255.55105267     2.03060000     0.07462317    46.82674879   195.92311695
C      2.87131700     2.56777500     0.00017900
C      2.68267800     1.20108900    -0.00010800
C      1.38630600     0.62410300    -0.00013200
C      0.19748500     1.44587600     0.00008100
C      0.45700400     2.84842100     0.00044800
C      1.73273800     3.39160400     0.00048700
C     -1.12370400     0.79015800    -0.00001700
C     -2.44698400     1.43468000    -0.00004300
C     -2.64987400     2.83387000    -0.00027100
N     -3.88360500     3.35634500    -0.00026900
C     -5.06807600     2.69551800    -0.00006300
C     -5.00360000     1.25671500     0.00011300
C     -6.20150500     0.52543600     0.00028800
B     -7.53793600     1.21060300     0.00030300
C     -7.53708500     2.76060100     0.00010900
C     -8.72978300     3.52413100     0.00009900
C     -8.72107200     4.91293100    -0.00008000
C     -7.49025200     5.59843300    -0.00025700
C     -6.29927100     4.88830400    -0.00025300
C     -6.29431700     3.46764600    -0.00007200
C     -3.66114900     0.65390300     0.00007200
C     -3.56208700    -0.75923400     0.00009300
C     -2.34281100    -1.37593100    -0.00003300
C     -1.12646400    -0.63870600    -0.00010200
C      0.08064200    -1.40619400    -0.00026400
C      1.29725200    -0.80048000    -0.00032200
H      3.87498100     2.99824800     0.00020800
H      3.54042800     0.52359800    -0.00029900
H     -1.87321600     3.57988400    -0.00052200
H      1.84282700     4.47870400     0.00077800
H     -0.34187900     3.57455200     0.00078600
H     -3.94189300     4.37231900    -0.00044600
H     -6.12896600    -0.56454200     0.00042000
H     -8.58855400     0.60702400     0.00045700
H     -9.68266900     2.98772800     0.00023600
H     -9.65768000     5.47628200    -0.00008300
H     -7.46929800     6.69111600    -0.00039800
H     -5.37085000     5.47204400    -0.00039200
H     -4.46985300    -1.35867400     0.00015700
H     -2.28029400    -2.46672400    -0.00007200
H     -0.00557300    -2.49517500    -0.00035500
H      2.22090100    -1.38399300    -0.00046200
