042
BNPAH_000069_PAH74   C24_H16_N01_B01 -1003.18543658     0.00000000    15.91676000  5260.63024843     8.38334793   228.12251668 22010.47695943    30.58505958     0.04874039     1.32629370   127.96788928    -4.15290000    -0.15261626   -95.76814984  -400.69393893    -3.29190000    -0.12097509   -75.91301800  -317.62006732     0.86100000     0.03164117    19.85513184    83.07387161
C      8.21308200    -2.86280600    -0.00000400
C      7.11994200    -3.69530500    -0.00000300
B      5.71255200    -3.06881400    -0.00000100
C      4.36938200    -3.78841400     0.00000000
C      3.17478300    -3.06385500     0.00000200
C      1.89029400    -3.68690400     0.00000200
C      0.69815700    -2.97947900     0.00000300
C      0.71797900    -1.52326000     0.00000400
C      1.98537800    -0.89277200     0.00000400
C      3.19230900    -1.59317500     0.00000300
C      4.43028800    -0.87149700     0.00000200
C      5.66193900    -1.50630800     0.00000100
C      6.89810500    -0.76633500    -0.00000100
C      8.10345800    -1.42071800    -0.00000300
C     -0.51567900    -0.80098600     0.00000300
C     -1.76814500    -1.50970300     0.00000200
C     -1.75194400    -2.95398200     0.00000200
C     -0.57646300    -3.64422600     0.00000200
C     -2.96415300    -0.76413200     0.00000000
N     -4.20365400    -1.39240200    -0.00000200
C     -5.39313900    -0.73983000    -0.00000400
C     -5.43260100     0.63737700    -0.00000500
C     -4.21250100     1.34777900    -0.00000200
C     -2.98650600     0.67449600    -0.00000000
C     -1.72262400     1.34620600     0.00000200
C     -0.55418200     0.63637500     0.00000300
H      9.23095100    -3.27375100    -0.00000600
H      7.30645500    -4.77689400    -0.00000400
H      4.26910300    -4.88223200    -0.00000000
H      1.85307800    -4.78060100     0.00000200
H      2.04856600     0.19750800     0.00000400
H      4.36326400     0.22573900     0.00000300
H      6.87732000     0.33094000     0.00000000
H      9.03007000    -0.83793800    -0.00000400
H     -2.68672500    -3.52269200     0.00000100
H     -0.58650400    -4.73738100     0.00000200
H     -4.20929100    -2.40795900    -0.00000200
H     -6.28481500    -1.36757300    -0.00000500
H     -6.39325000     1.15156700    -0.00000600
H     -4.21682300     2.43996400    -0.00000300
H     -1.71084700     2.43813700     0.00000200
H      0.38680200     1.18582600     0.00000400
