042
BNPAH_000080_PAH42   C24_H16_N01_B01 -1003.21671340     0.00500000     4.83016000  5280.25675569     8.41462476   228.97360258 22092.59426581    30.69916718     0.04892224     1.33124188   128.44531548    -4.44030000    -0.16317802  -102.39575134  -428.42382360    -2.77770000    -0.10207859   -64.05528421  -268.00730915     1.66260000     0.06109942    38.34046712   160.41651445
C      2.84444900     0.09475300    -0.00023500
C      2.75554200    -1.28576700     0.00026700
C      1.50120600    -1.95770500     0.00020100
B      1.33424600    -3.46034200     0.00064300
C     -0.10194800    -3.96760700     0.00044200
N     -0.27018800    -5.32132900     0.00060100
C     -1.43367900    -5.95120700     0.00031200
C     -2.63459300    -5.20157700    -0.00002900
C     -3.84478300    -5.97638200    -0.00036300
C     -5.05942100    -5.37258700    -0.00064100
C     -5.14834300    -3.94370500    -0.00043900
C     -6.42027200    -3.36141800    -0.00055200
C     -6.61403500    -1.97147200    -0.00016200
C     -7.90337500    -1.35830000    -0.00024400
C     -8.02377700     0.01301700     0.00023900
C     -6.86326900     0.84004500     0.00083700
C     -5.60652500     0.27887100     0.00093200
C     -5.44069500    -1.14126300     0.00042300
C     -4.16217700    -1.73370400     0.00048700
C     -3.94022300    -3.12280800    -0.00002100
C     -2.62138700    -3.77458500    -0.00002300
C     -1.28984100    -3.11556800    -0.00001900
C     -1.01028700    -1.74621900    -0.00050100
C      0.29803300    -1.16705900    -0.00040600
C      0.41861300     0.25513300    -0.00093400
C      1.65710800     0.86819900    -0.00084700
H      3.81793500     0.59173900    -0.00017500
H      3.66783700    -1.88970800     0.00072200
H      2.24238800    -4.26862700     0.00106400
H      0.59483200    -5.86321400     0.00088700
H     -1.42739400    -7.04088900     0.00038100
H     -3.75854900    -7.06570500    -0.00041000
H     -5.98243900    -5.95669600    -0.00092600
H     -7.29214500    -4.02153800    -0.00090300
H     -8.79123200    -1.99593100    -0.00068400
H     -9.01334200     0.47638800     0.00017500
H     -6.97807700     1.92651200     0.00122100
H     -4.71604400     0.91287900     0.00138900
H     -1.80018500    -1.00953500    -0.00111600
H     -3.33523900    -1.03963400     0.00106300
H     -0.49034000     0.86470900    -0.00140700
H      1.72239700     1.95986300    -0.00125200
