038
BNPAH_000468_PAH46   C22_H14_N01_B01  -925.91756016     0.00200000     1.54737000  4863.17405204     7.74996116   210.88718488 20347.52023374    30.77958261     0.04905039     1.33472902   128.78177364    -5.20890000    -0.19142355  -120.12008854  -502.58245045    -2.38410000    -0.08761406   -54.97865252  -230.03068213     2.82480000     0.10380949    65.14143602   272.55176833
C     -2.61297500    -0.67197000    -0.04843700
C     -2.70693700     0.73279100    -0.06071600
C     -1.55126200     1.50788800    -0.05623300
C     -0.26665700     0.91850500    -0.03946500
C     -0.18917100    -0.50330300    -0.02721700
C      1.11874500    -1.10772700    -0.01014400
C      2.27469200    -0.39283500    -0.00505600
N      2.32250400     1.00255800    -0.01577300
C      3.55680200     1.67156600    -0.00933600
C      4.79433700     0.95733400     0.00854200
C      6.00352500     1.60640700     0.01485100
C      6.08440800     3.02700500     0.00386600
C      7.32424000     3.71080900     0.01015400
C      7.36661600     5.09789500    -0.00091200
C      6.17302100     5.83614600    -0.01847800
C      4.92486700     5.19977500    -0.02520600
C      3.69406200     5.95189400    -0.04318400
C      2.48888900     5.32393900    -0.04950800
C      2.37371600     3.88106200    -0.03873700
C      1.14166100     3.25001900    -0.04523700
B      1.04476700     1.74334000    -0.03385200
C      3.59471900     3.09284900    -0.02061900
C      4.86105300     3.76631200    -0.01400000
C     -1.36716100    -1.28575200    -0.03185300
H     -3.52184700    -1.27921000    -0.05197500
H     -3.68930300     1.21170000    -0.07375500
H     -1.64146600     2.59730300    -0.06591200
H      1.20036600    -2.19720100    -0.00065800
H      3.22232200    -0.92286600     0.00799500
H      4.80694400    -0.12998100     0.01773400
H      6.92775100     1.02329900     0.02863600
H      1.56130400     5.90181500    -0.06311300
H     -1.28887100    -2.37656000    -0.02227100
H      0.25726400     3.89582100    -0.05892000
H      3.75372800     7.04349200    -0.05161100
H      8.24843300     3.12740200     0.02387500
H      8.32738200     5.61784000     0.00402900
H      6.20781200     6.92874000    -0.02716400
