038
BNPAH_000192_PAH36   C22_H14_N01_B01  -925.84199774     0.00100000     7.76242000  4815.75790890     7.67439873   208.83102632 20149.13109084    30.47948044     0.04857214     1.32171536   127.52614616    -4.62860000    -0.17009791  -106.73805253  -446.59201178    -2.94590000    -0.10825983   -67.93406839  -284.23614214     1.68270000     0.06183808    38.80398414   162.35586964
C      6.71867700     1.04136400    -0.00000100
C      5.55843200     1.78900200    -0.00000100
C      4.29377200     1.14034800     0.00000000
C      4.23493900    -0.29049100     0.00000000
C      5.45255000    -1.03991700     0.00000000
C      6.66220900    -0.38157400    -0.00000100
C      2.98504500    -0.90801600     0.00000100
N      1.78895700    -0.24363600     0.00000100
C      0.56389100    -0.95571000     0.00000100
C      0.56011400    -2.38034300     0.00000100
C     -0.59634600    -3.13723400     0.00000000
B     -1.95541400    -2.45487100    -0.00000100
C     -1.91715800    -0.92443900    -0.00000000
C     -3.12193600    -0.15406600    -0.00000100
C     -3.13097000     1.21739900    -0.00000100
C     -1.89963200     1.93982100    -0.00000000
C     -1.86291400     3.35223000    -0.00000000
C     -0.65285500     4.03215400     0.00000000
C      0.55645200     3.32808300     0.00000100
C      0.57162100     1.92321600     0.00000100
C      1.82450500     1.17381100     0.00000100
C      3.05810100     1.81124000     0.00000000
C     -0.66213500     1.21024800     0.00000000
C     -0.67414000    -0.22291500     0.00000000
H      7.69065500     1.53945500    -0.00000100
H      5.59708000     2.88096000    -0.00000100
H      5.41025100    -2.13159800     0.00000000
H      7.59264500    -0.95380300    -0.00000100
H      2.92982400    -1.98936200     0.00000100
H      1.50934500    -2.91847400     0.00000100
H     -0.45620000    -4.22421300    -0.00000000
H     -3.00711700    -3.05459000    -0.00000100
H     -4.06824400    -0.70203600    -0.00000100
H     -4.06852900     1.77918600    -0.00000100
H     -2.80660300     3.90342400    -0.00000000
H     -0.63609200     5.12447200     0.00000000
H      1.48451900     3.89917900     0.00000100
H      3.06332200     2.89917600     0.00000000
