042
BNPAH_000230_PAH42   C24_H16_N01_B01 -1003.24488984     0.00100000     3.10737000  5297.93774145     8.44280120   229.74032268 22166.57151023    30.80196361     0.04908605     1.33569955   128.87541574    -4.78440000    -0.17582346  -110.33088591  -461.62442664    -2.74240000    -0.10078134   -63.24124687  -264.60137690     2.04200000     0.07504212    47.08963904   197.02304975
C      2.80155500     0.02219800     0.00006100
C      2.68193300    -1.34831100    -0.00007100
C      1.39180800    -1.96278200    -0.00004800
C      1.19534700    -3.35002600    -0.00015300
C     -0.07985400    -3.93199700    -0.00011800
C     -0.16975600    -5.35787500    -0.00017200
C     -1.38649800    -5.96357900    -0.00009400
C     -2.60049500    -5.20137700    -0.00000000
C     -3.81771500    -5.97406100     0.00009200
C     -5.04130900    -5.38971300     0.00017200
C     -5.14294700    -3.96166700     0.00012200
C     -6.39583500    -3.36526400     0.00015300
C     -6.58211900    -1.96791700     0.00004700
C     -7.84495400    -1.35115200     0.00006800
C     -7.98323700     0.03960200    -0.00006500
C     -6.87355200     0.89347000    -0.00022900
B     -5.50642600     0.30141400    -0.00025800
N     -5.42326200    -1.17881100    -0.00010700
C     -4.18257500    -1.77055700    -0.00012100
C     -3.93509600    -3.13511700     0.00001000
C     -2.60153800    -3.78318700     0.00000300
C     -1.28839800    -3.11370300    -0.00000200
C     -1.06003000    -1.72497800     0.00013100
C      0.21807000    -1.13301100     0.00011200
C      0.38329000     0.28770800     0.00025200
C      1.63950900     0.84864600     0.00022600
H      3.79047800     0.48682500     0.00004400
H      3.56978600    -1.98590700    -0.00019300
H      2.06493100    -4.01313700    -0.00025000
H      0.75339900    -5.94211800    -0.00025200
H     -1.46767200    -7.05307000    -0.00010800
H     -3.72275100    -7.06255000     0.00010100
H     -5.95797300    -5.98359100     0.00024800
H     -7.28604900    -3.99727700     0.00024500
H     -8.72064300    -2.00237300     0.00018900
H     -9.00027600     0.44842200    -0.00004000
H     -7.05455300     1.97238800    -0.00033000
H     -4.44903900     0.88026500    -0.00038800
H     -1.87215800    -1.01278000     0.00028500
H     -3.40877300    -1.02030000    -0.00027400
H     -0.50721900     0.92202300     0.00037800
H      1.75337400     1.93525500     0.00033300
