036
BNPAH_000216_PAH16   C20_H14_N01_B01  -849.66643606     0.00000000     9.83864000  4477.08178701     7.13468397   194.14463978 18732.11019685    30.66494375     0.04886770     1.32975781   128.30212465    -4.31070000    -0.15841530   -99.40710432  -415.91932446    -2.52180000    -0.09267444   -58.15408998  -243.31671246     1.78890000     0.06574086    41.25301434   172.60261199
C      4.96741200     1.53166600    -0.00000000
C      4.98606700     0.16607600    -0.00000100
C      3.77212700    -0.59756500    -0.00000000
C      2.50862500     0.13206200     0.00000000
C      2.57691100     1.51604500     0.00000000
N      3.76513000     2.18491200    -0.00000000
C      1.23822300    -0.60839400     0.00000000
C      1.30021900    -2.06221500     0.00000000
C      2.55314300    -2.68914600     0.00000000
C      3.77177800    -1.99526000    -0.00000000
B     -0.00357300    -2.86371000     0.00000000
C     -1.30931200    -2.06658900     0.00000000
C     -2.58453400    -2.71284900     0.00000000
C     -3.76335100    -2.01135300    -0.00000000
C     -3.75451200    -0.58093600    -0.00000000
C     -4.97127700     0.15186900    -0.00000100
C     -4.97904900     1.53455200    -0.00000000
C     -3.75455100     2.23619300     0.00000000
C     -2.55453600     1.54369700     0.00000000
C     -2.50461300     0.12444800     0.00000000
C     -1.25841100    -0.63797700     0.00000000
C      0.00301300     0.03171900     0.00000100
H      5.86108600     2.15530900    -0.00000100
H      5.94600300    -0.35263300    -0.00000100
H      1.69101000     2.14911300     0.00000100
H      3.75207300     3.19971900     0.00000000
H      2.57359100    -3.78335600     0.00000000
H      4.72329500    -2.53178900    -0.00000000
H      0.00950900    -4.07572700     0.00000000
H     -2.60225500    -3.80653300     0.00000000
H     -4.72738400    -2.52764400    -0.00000100
H     -5.91248600    -0.40495300    -0.00000100
H     -5.92506800     2.08189200    -0.00000100
H     -3.75156000     3.32925100     0.00000000
H     -1.62703000     2.11824200     0.00000100
H     -0.01571500     1.12188400     0.00000100
