036
BNPAH_000018_PAH23   C20_H14_N01_B01  -849.64164270     0.00000000    11.57895000  4461.52371574     7.10989061   193.46997796 18667.01522666    30.55838161     0.04869788     1.32513684   127.85626866    -4.48470000    -0.16480969  -103.41963967  -432.70777238    -2.90390000    -0.10671636   -66.96552537  -280.18375816     1.58080000     0.05809333    36.45411430   152.52401422
B      2.72858500    -0.22485300    -0.00000000
C      2.52157100    -1.74572300    -0.00000000
C      1.25445900    -2.30440000     0.00000000
C      0.06536500    -1.52024700     0.00000000
C      0.20010400    -0.07384000    -0.00000000
C     -1.01976500     0.65774800    -0.00000000
C     -2.28222800     0.09796500     0.00000000
C     -2.49623900    -1.30641900     0.00000100
C     -3.79209900    -1.97941400     0.00000100
C     -3.78469500    -3.40498100     0.00000000
C     -4.94328400    -4.22616000    -0.00000000
C     -6.17881400    -3.65471400    -0.00000000
C     -6.30585600    -2.23239600    -0.00000000
C     -7.61629300    -1.69047200    -0.00000000
C     -7.83753200    -0.32764000    -0.00000000
C     -6.72240500     0.52607900     0.00000000
C     -5.43108600     0.01761400     0.00000100
C     -5.14306300    -1.37501600     0.00000100
N     -2.58432200    -4.07544700     0.00000000
C     -1.38865900    -3.48687600     0.00000100
C     -1.25890700    -2.09729100     0.00000100
C      1.44747100     0.57182100    -0.00000000
H      3.83161800     0.27860900    -0.00000100
H      3.35497100    -2.46063500    -0.00000000
H      1.16974400    -3.39748100     0.00000000
H     -0.94688100     1.74977700    -0.00000100
H     -4.63887300     0.75055700     0.00000100
H     -4.81930400    -5.31279200    -0.00000100
H     -7.08201300    -4.26803100    -0.00000100
H     -8.45736700    -2.38847000    -0.00000100
H     -8.85225000     0.07598100    -0.00000100
H     -6.86125400     1.60955300     0.00000100
H     -3.10398700     0.79712000    -0.00000000
H     -2.62567100    -5.09152200     0.00000000
H     -0.53189500    -4.15699100     0.00000000
H      1.40393500     1.66899300    -0.00000100
