042
BNPAH_000493_PAH63   C24_H16_N01_B01 -1003.20992226     4.52900000     5.29017000  5275.99524886     8.40783361   228.78880615 22074.76412123    30.67439098     0.04888275     1.33016748   128.34165186    -4.69410000    -0.17250499  -108.24851842  -452.91180108    -2.53290000    -0.09308236   -58.41006206  -244.38769966     2.16120000     0.07942264    49.83845636   208.52410143
C      2.48735300    -0.11876200    -0.36058300
C      2.34948100    -1.33373000     0.28279900
C      1.08136300    -1.96183400     0.39758700
C      0.96502900    -3.27859900     0.93256600
C     -0.22455200    -3.95294500     0.85615900
C     -1.41119300    -3.31969100     0.37252100
C     -2.61342900    -4.09166700     0.07754900
C     -2.58656100    -5.50407200     0.00504000
C     -3.65589100    -6.22921800    -0.50356000
C     -4.77395800    -5.54528200    -1.00818600
C     -4.83552400    -4.16056900    -0.91720000
C     -3.80267200    -3.40259700    -0.30711100
C     -3.88068200    -1.96385400    -0.09040500
C     -5.14961400    -1.30111400     0.09073600
C     -6.35794100    -1.98086600     0.38470700
C     -7.57417800    -1.31567400     0.54266600
C     -7.60186200     0.07320200     0.44893600
N     -6.44240400     0.72029800     0.27046000
C     -5.20132400     0.14531500     0.12689400
B     -3.94880300     1.00849800     0.17891100
C     -2.70060400     0.20589300     0.22581800
C     -2.66875700    -1.20667100     0.02683600
C     -1.39160300    -1.93699900     0.07812500
C     -0.09626800    -1.29708000    -0.08532000
C      0.09699900    -0.07973300    -0.79916100
C      1.35144300     0.49054400    -0.93708600
H      3.47020700     0.34914500    -0.45547500
H      3.22429300    -1.85019100     0.68730300
H      1.85387900    -3.76484800     1.34289300
H     -0.27355600    -4.98876200     1.19447700
H     -1.68607100    -6.04101400     0.30603300
H     -3.60030900    -7.31877100    -0.56101100
H     -5.58446600    -6.09530900    -1.49298800
H     -6.34091000    -3.06130800     0.52767800
H     -5.68253900    -3.64085200    -1.36755200
H     -8.49146600    -1.86283700     0.76121100
H     -8.50417000     0.67721500     0.54869900
H     -6.44113700     1.74031400     0.28065300
H     -4.03967600     2.21538000     0.27870200
H     -0.75540800     0.39218200    -1.28635900
H     -1.74112400     0.67190700     0.45552200
H      1.46129700     1.41493800    -1.50948300
