042
BNPAH_000468_PAH59   C24_H16_N01_B01 -1003.29211264     0.00000000     2.33390000  5327.57050094     8.49002401   231.02532074 22290.55497593    30.97424710     0.04936060     1.34317047   129.59624987    -5.10320000    -0.18753914  -117.68258862  -492.38395077    -1.99340000    -0.07325610   -45.96889641  -192.33386257     3.10980000     0.11428304    71.71369221   300.05008820
C      2.14435600     3.55597700    -0.00000200
C      2.17076600     2.16897600    -0.00000100
C      0.98401500     1.39806400    -0.00000000
C     -0.26719600     2.07799700     0.00000000
C     -0.26666400     3.49307700    -0.00000000
C      0.91100500     4.22598500    -0.00000100
C     -1.51998100     1.31183300     0.00000100
C     -1.48072000    -0.11771900     0.00000100
C     -2.70515800    -0.81442300     0.00000100
C     -3.95701400    -0.19027800     0.00000100
C     -3.98638500     1.24455000     0.00000100
C     -5.24413300     1.97121500     0.00000200
C     -6.47323000     1.37288400     0.00000100
C     -6.60947900    -0.06351500     0.00000000
C     -7.84009300    -0.72056200    -0.00000100
C     -7.91770000    -2.13332500    -0.00000200
C     -6.77122800    -2.90487500    -0.00000200
N     -5.53557900    -2.33462000    -0.00000000
B     -5.33135700    -0.90421100     0.00000000
C     -2.77275500     1.94799200     0.00000100
C     -0.19028200    -0.81565100     0.00000100
C     -0.11020600    -2.22903400     0.00000100
C      1.10549100    -2.89690200     0.00000100
C      2.30088400    -2.16136100     0.00000000
C      2.25049300    -0.77498500    -0.00000000
C      1.02371600    -0.06992500     0.00000000
H      3.08046400     4.11928600    -0.00000200
H      3.13966200     1.66976100    -0.00000200
H     -1.21348500     4.03288700     0.00000000
H      0.87406300     5.31787400    -0.00000100
H     -2.67497200    -1.90645500     0.00000100
H     -5.18163300     3.06369600     0.00000200
H     -7.37249300     1.99962000     0.00000100
H     -8.77621700    -0.14863400    -0.00000100
H     -8.88595000    -2.63647500    -0.00000300
H     -6.81654400    -3.99637600    -0.00000200
H     -4.75233800    -2.98360600    -0.00000000
H     -2.82418600     3.03768100     0.00000100
H     -1.02533000    -2.82128200     0.00000200
H      1.12795400    -3.98928100     0.00000100
H      3.26630700    -2.67269700    -0.00000000
H      3.19043000    -0.22315100    -0.00000100
