042
BNPAH_000047_PAH39   C24_H16_N01_B01 -1003.21775487     0.00000000    10.45461000  5280.91029065     8.41566623   229.00194253 22095.32865608    30.70296681     0.04892829     1.33140664   128.46121313    -4.65410000    -0.17103502  -107.32609650  -449.05238777    -2.72620000    -0.10018600   -62.86766599  -263.03831450     1.92790000     0.07084902    44.45843051   186.01407326
C      2.79384700     0.43352300     0.00000100
B      2.87014600    -1.10193100     0.00000100
C      1.53590200    -1.83256700     0.00000100
C      0.32670900    -1.14195800     0.00000000
C      0.33025100     0.31724400    -0.00000000
C     -0.88440800     1.00743700    -0.00000000
C     -2.13948400     0.38015500    -0.00000100
C     -2.22928200    -1.01225100    -0.00000100
C     -3.50028700    -1.72723100    -0.00000100
C     -4.76043800    -1.06629100    -0.00000100
C     -5.94671900    -1.76244700    -0.00000000
C     -5.98493500    -3.18519100    -0.00000000
C     -4.74774400    -3.89063700    -0.00000100
C     -4.75997100    -5.32481000    -0.00000100
C     -5.93299500    -6.02699900    -0.00000100
C     -7.19878700    -5.35917300     0.00000000
C     -8.41073500    -6.09526200     0.00000100
C     -9.63387500    -5.44928700     0.00000100
C     -9.67703200    -4.03892900     0.00000100
C     -8.50562200    -3.29882400     0.00000100
C     -7.23474600    -3.92901300     0.00000000
C     -3.52563300    -3.13799300    -0.00000100
N     -2.31121800    -3.79565500    -0.00000100
C     -1.11632700    -3.16278400    -0.00000100
C     -0.99868100    -1.78470200    -0.00000000
C      1.56636000     1.04916700     0.00000000
H      3.67799300     1.08297200     0.00000100
H      3.92491000    -1.69994900     0.00000200
H      1.49980200    -2.92953600     0.00000100
H     -0.85046000     2.10141800    -0.00000100
H     -3.03757100     0.99770200    -0.00000100
H     -4.78878000     0.02300800    -0.00000100
H     -6.87933300    -1.19862000    -0.00000000
H     -3.82581100    -5.89246300    -0.00000100
H     -5.91758700    -7.11955800    -0.00000100
H     -8.36093800    -7.18721200     0.00000000
H    -10.56196200    -6.02534800     0.00000100
H    -10.64087700    -3.52472100     0.00000100
H     -8.57395700    -2.21053200     0.00000100
H     -2.31272400    -4.80931600    -0.00000100
H     -0.24353500    -3.81471400    -0.00000100
H      1.47424400     2.14327800     0.00000000
