042
BNPAH_000049_PAH61   C24_H16_N01_B01 -1003.19237076     6.14600000     9.73544000  5264.98151790     8.39028212   228.31120558 22028.68267089    30.61035766     0.04878071     1.32739073   128.07373645    -4.23400000    -0.15559663   -97.63836028  -408.51889942    -2.93060000    -0.10769756   -67.58124200  -282.75991655     1.30340000     0.04789907    30.05711828   125.75898288
C     -2.84658000     3.93278600    -0.64138900
B     -1.39367100     3.95789000    -0.28804100
C     -3.59388800     2.74487200    -0.52571700
C     -0.75652500     2.57666300    -0.05159400
C     -2.98601400     1.48391100    -0.16297900
C     -1.55425100     1.38501600    -0.16453200
C     -5.01443500     2.75727000    -0.79451000
C     -3.86875500     0.40418000     0.27408000
C     -5.80640300     1.66523400    -0.60543800
C     -5.27266300     0.47431700    -0.00315500
C      0.63797800     2.41992200     0.26926000
C     -0.86071400     0.12601000    -0.44810400
C      1.24228800     1.12229400     0.31428700
C      0.53384000    -0.03057700    -0.16842900
C     -6.12524800    -0.58574700     0.38872000
C     -3.42724400    -0.68263800     1.07638400
C     -5.64314600    -1.67290300     1.10153600
C     -4.28427400    -1.69924600     1.47296200
C     -1.49298700    -0.94762800    -1.13566700
C      1.19160700    -1.25594300    -0.45595900
C     -0.83102700    -2.12752100    -1.42435700
C      0.51999900    -2.30404200    -1.05577500
C      1.47693400     3.51188100     0.61832100
C      2.79353100     3.33490500     1.03782000
N      2.52750100     1.01311100     0.75675500
C      3.31639700     2.05066900     1.11881500
H      1.04683500     4.51244300     0.56547500
H      3.41502100     4.18615000     1.31762400
H      2.91492800     0.07359400     0.81445800
H      4.32218900     1.80863500     1.45959600
H     -3.41365000     4.81892900    -0.95215000
H     -0.74471200     4.98279500    -0.24941700
H     -5.44337500     3.69243300    -1.16528700
H     -6.87471900     1.70117600    -0.83698400
H     -7.18842700    -0.51633200     0.14114200
H     -6.31544500    -2.47864400     1.40633600
H     -3.90323300    -2.51430000     2.09396300
H     -2.38917700    -0.70889800     1.41014700
H     -2.52734500    -0.82354500    -1.45296700
H     -1.35677300    -2.92262900    -1.95823600
H      1.04138100    -3.23577300    -1.28457500
H      2.26163100    -1.37415800    -0.25528700
