042
BNPAH_000078_PAH53   C24_H16_N01_B01 -1003.26499826     0.00000000     1.83006000  5310.55596606     8.46290962   230.28750068 22219.36616200    30.87532538     0.04920296     1.33888082   129.18236139    -4.55790000    -0.16749974  -105.10767178  -439.77049875    -2.48610000    -0.09136249   -57.33082841  -239.87218608     2.07180000     0.07613725    47.77684337   199.89831267
C      2.14425700    -1.33290600    -0.00000300
C      0.96522100    -2.00674000    -0.00000200
N     -0.27299800    -1.36767500     0.00000000
B     -1.49368700    -2.15329300     0.00000100
C     -2.82244600    -1.40622800     0.00000200
C     -4.05357600    -2.06455300     0.00000300
C     -5.28202800    -1.36269100     0.00000300
C     -6.53463300    -2.01611000     0.00000200
C     -7.73768200    -1.31228700     0.00000100
C     -9.00115200    -2.00604600    -0.00000100
C    -10.18146300    -1.32922800    -0.00000200
C    -10.21995700     0.11440100    -0.00000100
C    -11.45627500     0.80047800    -0.00000300
C    -11.50788400     2.18742800    -0.00000200
C    -10.31067400     2.92462600    -0.00000100
C     -9.08513900     2.26865700     0.00000100
C     -9.00129300     0.85826300     0.00000000
C     -7.72124400     0.13914500     0.00000100
C     -6.48981300     0.78735100     0.00000300
C     -5.25636400     0.08594400     0.00000300
C     -4.01273400     0.75251300     0.00000300
C     -2.80234200     0.04571200     0.00000300
C     -1.53770400     0.71032300     0.00000200
C     -0.32274000     0.05257500     0.00000000
C      0.93286800     0.75936300    -0.00000100
C      2.12872600     0.10457300    -0.00000300
H      3.08279600    -1.88795200    -0.00000500
H      0.90382900    -3.09515800    -0.00000200
H     -1.37706600    -3.35159300     0.00000100
H     -4.07621400    -3.15856200     0.00000200
H     -6.55915300    -3.10970200     0.00000100
H     -8.98768300    -3.09912000    -0.00000100
H    -11.13142700    -1.87001400    -0.00000300
H    -12.37982800     0.21520500    -0.00000400
H    -12.47122800     2.70291000    -0.00000300
H    -10.34019100     4.01684700    -0.00000000
H     -8.17203000     2.86586400     0.00000200
H     -6.44471400     1.87795000     0.00000300
H     -3.99952300     1.84641200     0.00000300
H     -1.51314000     1.80201500     0.00000200
H      0.88613200     1.84988500    -0.00000100
H      3.06801500     0.66144000    -0.00000400
