042
BNPAH_000408_PAH50   C24_H16_N01_B01 -1003.18288812     0.01000000    11.46888000  5259.03106529     8.38079947   228.05316953 22003.78597717    30.57576201     0.04872558     1.32589052   127.92898825    -4.54130000    -0.16688970  -104.72486669  -438.16884222    -3.28300000    -0.12064803   -75.70777912  -316.76134785     1.25830000     0.04624167    29.01708756   121.40749437
C     -2.93691300     0.19453200     0.00024300
C     -2.90171100     1.61582200     0.00126600
C     -1.69610100     2.28349200     0.00142900
C     -0.46273500     1.56544900     0.00057900
C      0.78582300     2.22673600     0.00071600
C      2.00399900     1.54126100    -0.00007600
C      1.92728500     0.11239500    -0.00110400
N      3.13141700    -0.56732300    -0.00208600
C      4.34213500     0.02416500    -0.00185300
C      4.54967900     1.40321500    -0.00051600
C      5.89697800     2.04153900    -0.00010300
C      5.85240500     3.49843400    -0.00042900
C      7.04778600     4.28663400    -0.00100800
C      8.26504600     3.69059800    -0.00118000
C      8.40625700     2.26122300    -0.00039000
C      9.70421700     1.73991800    -0.00029300
B      9.98379000     0.25364500     0.00103200
C      8.70593700    -0.59279100     0.00243500
C      7.46070200    -0.00707800     0.00217700
C      7.19785200     1.41525100     0.00048400
C      4.64400600     4.20230700    -0.00016800
C      3.39873700     3.58426400     0.00023700
C      3.31730500     2.19749600    -0.00001900
C      0.72163900    -0.57673800    -0.00130000
C     -0.50249800     0.12490800    -0.00045300
C     -1.76641800    -0.53379600    -0.00059900
H     -3.90049200    -0.32027000     0.00012500
H     -3.83861300     2.17744500     0.00192400
H     -1.66794600     3.37606000     0.00221300
H      0.77495300     3.31690800     0.00150800
H      3.10224300    -1.58253400    -0.00307500
H      6.63470700    -0.70797500     0.00370900
H      6.94460100     5.37443600    -0.00137200
H      9.18026600     4.28817300    -0.00170900
H     10.49799800     2.49822900    -0.00113000
H     11.09726100    -0.22348300     0.00124500
H      8.70941700    -1.69064900     0.00382500
H      5.15252400    -0.68861700    -0.00299100
H      4.69465000     5.29419300    -0.00025000
H      2.49996100     4.19930200     0.00047700
H      0.71939300    -1.67033200    -0.00213000
H     -1.79296900    -1.62643500    -0.00138800
