038
BNPAH_000249_PAH62   C22_H14_N01_B01  -925.82342066     0.00100000    10.55074000  4804.10061186     7.65582164   208.32551808 20100.35696002    30.40570008     0.04845457     1.31851594   127.21744913    -4.26810000    -0.15684978   -98.42472497  -411.80904928    -2.72540000    -0.10015660   -62.84921755  -262.96112624     1.54270000     0.05669318    35.57550742   148.84792304
C      4.70245400     2.03473400     0.00004900
C      4.82156800     0.63136700     0.00013900
C      3.70505300    -0.18887300     0.00013100
C      2.35620700     0.29664200     0.00002800
C      2.27217400     1.74061100    -0.00002900
C      3.43258700     2.56488900    -0.00002700
C      1.01761000     2.38169200    -0.00007300
C     -0.17888300     1.69551300    -0.00005200
C     -1.39988400     2.47886700    -0.00006900
C     -2.64031800     1.92401300    -0.00004000
B     -2.74536800     0.38705800     0.00000600
C     -1.43419000    -0.41934400     0.00001100
C     -1.51928900    -1.85469100     0.00004400
C     -2.78206500    -2.50255000     0.00008000
C     -3.99217100    -1.80021200     0.00008300
C     -4.03814900    -0.40477600     0.00004600
C     -0.29987600    -2.60526600     0.00001600
C     -0.33163100    -4.03111500     0.00001000
C      0.80037700    -4.79614300    -0.00006000
N      1.99573000    -4.15277200    -0.00013400
C      2.09876500    -2.80327800    -0.00012200
C      0.99969600    -1.93427800    -0.00002600
C      1.10627600    -0.46691600    -0.00000200
C     -0.15774700     0.23553900    -0.00001300
H      5.58698200     2.67504500     0.00005500
H      5.81107900     0.16679200     0.00022100
H      3.12153000    -2.46829900    -0.00021000
H      3.28111000     3.64750100    -0.00008000
H      0.99844800     3.47545100    -0.00010700
H     -1.24940900     3.56600800    -0.00010100
H     -3.50771600     2.59560200    -0.00005100
H     -2.84017300    -3.59166900     0.00010500
H     -4.91540300    -2.39284300     0.00011200
H     -5.03094400     0.06298100     0.00004700
H     -1.28885700    -4.54562100     0.00005200
H      0.81523700    -5.88525800    -0.00007300
H      2.85522100    -4.69442700    -0.00020300
H      3.95306000    -1.24018400     0.00023500
