042
BNPAH_000061_PAH72   C24_H16_N01_B01 -1003.21704993     0.00000000     8.97067000  5280.46793334     8.41496129   228.98276011 22093.47783309    30.70039496     0.04892419     1.33129512   128.45045251    -4.30130000    -0.15806986   -99.19033516  -415.01236233    -3.05120000    -0.11212953   -70.36234409  -294.39604769     1.25010000     0.04594033    28.82799107   120.61631464
C      2.77086400     0.21542700     0.00000200
C      2.88428700    -1.17506400     0.00000100
B      1.62604000    -2.02076800     0.00000000
C      0.28974900    -1.23380900    -0.00000000
C     -0.94510400    -1.87122600    -0.00000100
C     -2.18584600    -1.18257200    -0.00000100
C     -2.15945500     0.27007300    -0.00000100
C     -3.40759500     0.98447400    -0.00000100
C     -4.61144700     0.34069100    -0.00000100
C     -4.68318500    -1.09826100    -0.00000100
C     -3.44447400    -1.83328500    -0.00000100
N     -3.54887700    -3.19951700    -0.00000100
C     -4.71936200    -3.92055600    -0.00000100
C     -4.66944200    -5.33947300    -0.00000100
C     -5.83684000    -6.06333700    -0.00000100
C     -7.11166800    -5.41862300     0.00000000
C     -8.31218100    -6.17579900     0.00000100
C     -9.54619900    -5.55276000     0.00000200
C     -9.61724100    -4.14198100     0.00000200
C     -8.46160400    -3.37858600     0.00000100
C     -7.18020200    -3.98595400     0.00000000
C     -5.94960000    -3.21986700    -0.00000100
C     -5.88773400    -1.80031300    -0.00000100
C     -0.93534000     0.92658500    -0.00000000
C      0.30404300     0.22714300     0.00000000
C      1.53490400     0.90251300     0.00000100
H      3.67593600     0.83665300     0.00000200
H      3.89967600    -1.58822800     0.00000100
H      1.61320200    -3.23489400    -0.00000000
H     -0.92414200    -2.96817200    -0.00000100
H     -3.37364000     2.07712100    -0.00000100
H     -5.54812200     0.90245600    -0.00000100
H     -2.68015400    -3.72796900    -0.00000200
H     -3.69882700    -5.84189500    -0.00000200
H     -5.80048900    -7.15515100    -0.00000100
H     -8.24250200    -7.26663200     0.00000100
H    -10.46321700    -6.14604300     0.00000200
H    -10.59137700    -3.64761100     0.00000200
H     -8.54742000    -2.29102100     0.00000100
H     -6.81249200    -1.22161600    -0.00000100
H     -0.92556900     2.02110400     0.00000000
H      1.53421400     1.99672200     0.00000100
