036
BNPAH_000177_PAH18   C20_H14_N01_B01  -849.71452107     0.00000000     4.60470000  4507.25558824     7.18276899   195.45309963 18858.35738120    30.87161362     0.04919705     1.33871986   129.16683139    -4.63760000    -0.17042866  -106.94559746  -447.46037978    -2.75910000    -0.10139506   -63.62635802  -266.21268196     1.87850000     0.06903360    43.31923944   181.24769782
C     -2.30364300    -3.55683300     0.00000000
C     -2.30601900    -2.18144500     0.00000000
C     -1.08911600    -1.41973200    -0.00000000
C      0.16817300    -2.15694700    -0.00000000
C      0.12113000    -3.58491200     0.00000000
C     -1.07245100    -4.27203400     0.00000000
C      1.41944200    -1.49156100    -0.00000000
C      1.53356300    -0.09988900    -0.00000000
B      0.22475400     0.69583800    -0.00000000
N      0.37236100     2.16210000    -0.00000000
C      1.54358300     2.78128600     0.00000000
C      2.77725500     2.07026000     0.00000000
C      3.97545300     2.80628200     0.00000000
C      5.22759000     2.17554600     0.00000000
C      6.45740100     2.90557500     0.00000000
C      7.66490100     2.24757700     0.00000000
C      7.70553700     0.82235400    -0.00000000
C      6.54224700     0.08649700    -0.00000000
C      5.26608200     0.73028600    -0.00000000
C      4.05999800     0.00236100    -0.00000000
C      2.80074000     0.61578600    -0.00000000
C     -1.09177600    -0.01058200    -0.00000000
H     -3.24819900    -4.10730800     0.00000000
H     -3.25261600    -1.63325800     0.00000000
H      1.06852100    -4.13220300    -0.00000000
H     -1.07901600    -5.36486600     0.00000000
H      2.30766600    -2.13387800    -0.00000000
H     -0.45361200     2.75880000    -0.00000000
H      1.55176100     3.87482700     0.00000000
H      3.92953100     3.89950200     0.00000000
H      6.41906400     3.99818700     0.00000000
H      8.59962600     2.81305500     0.00000000
H      8.67283600     0.31403800    -0.00000000
H      6.57771100    -1.00593600    -0.00000000
H      4.12226700    -1.08777700    -0.00000000
H     -2.07427500     0.47904600    -0.00000000
