042
BNPAH_000120_PAH67   C24_H16_N01_B01 -1003.16708476     5.77800000    12.03747000  5249.11430921     8.36499611   227.62313829 21962.29426973    30.51810645     0.04863370     1.32339034   127.68775739    -4.27120000    -0.15696371   -98.49621267  -412.10815381    -3.00680000    -0.11049786   -69.33845576  -290.11209891     1.26440000     0.04646584    29.15775691   121.99605490
C     -2.52522200     3.77394300     0.86879700
C     -1.33296300     3.25703000     1.47477400
C     -3.31525900     3.00408600     0.04200800
C     -0.86075200     1.98423700     1.21690700
B     -2.89389200     1.55806700    -0.25776700
C     -1.53576300     1.09681500     0.31962200
C     -1.04933200    -0.21236100     0.00377400
C     -3.72863800     0.49579500    -1.00014600
C     -3.28357100    -0.79954800    -1.02058600
C     -1.98822500    -1.18787100    -0.51764300
C      0.32020300    -0.67243300     0.17675800
C     -1.65453500    -2.55593800    -0.47667000
C     -0.43357000    -3.01033600     0.00894300
C      0.58346800    -2.08384200     0.30156700
C      1.47251800     0.18045000     0.07566700
C      2.79452000    -0.32208400     0.42095800
C      1.89283900    -2.54199000     0.67743300
C      2.96026800    -1.69899400     0.78816700
C      1.44499700     1.48551900    -0.46483300
C      2.56706400     2.29886100    -0.55778200
N      3.80744600     1.81297500    -0.09575400
C      3.89043400     0.52070200     0.35298300
C      4.93667400     2.62269600    -0.13047300
C      2.53370300     3.63021400    -1.08221800
C      4.88794300     3.89093100    -0.62435200
C      3.65338300     4.41526100    -1.12058600
H      5.84412600     2.16164800     0.25917500
H      5.79918100     4.48981000    -0.63144100
H      3.60960100     5.43111200    -1.51585500
H      1.56686000     3.99351000    -1.43287700
H     -2.81011300     4.80279200     1.12551600
H     -4.24128600     3.45464700    -0.33877600
H     -0.79922800     3.88572600     2.19511900
H      0.03066200     1.64874700     1.76017000
H     -4.71331300     0.69877200    -1.44104200
H     -3.89667600    -1.61364800    -1.42872500
H     -2.40675500    -3.27885000    -0.80628900
H     -0.22949800    -4.07982400     0.10030000
H      3.94631100    -2.06314300     1.08479600
H      2.01953600    -3.61104100     0.86949200
H      0.50368800     1.89520700    -0.82711500
H      4.88950500     0.18762700     0.63606700
