032
BNPAH_000087_PAH17   C18_H12_N01_B01  -772.31631592     0.00000000     6.38243000  4028.01686698     6.41905347   174.67134193 16853.22257144    30.51527930     0.04862919     1.32326774   127.67592859    -4.71420000    -0.17324366  -108.71203544  -454.85115627    -2.60500000    -0.09573199   -60.07272757  -251.34429216     2.10920000     0.07751167    48.63930787   203.50686412
C      4.64213000    -0.25821800     0.00000000
C      4.65600100     1.14904500     0.00000000
C      3.45623400     1.84236900     0.00000000
C      2.21007700     1.16965400    -0.00000000
C      2.18970800    -0.25976400    -0.00000000
C      3.43605700    -0.93896800    -0.00000000
C      0.93703200    -1.01082200    -0.00000000
B      0.84610700    -2.54172800    -0.00000000
C     -0.55361100    -3.16207700    -0.00000000
C     -1.67048300    -2.35458400     0.00000000
C     -1.53827500    -0.94457800    -0.00000000
N     -2.67782900    -0.18041400     0.00000000
C     -2.72635900     1.15173900     0.00000000
C     -1.52458800     1.89689700     0.00000000
C     -1.54165200     3.30920300     0.00000000
C     -0.33912700     4.00321300    -0.00000000
C      0.88000000     3.31560700    -0.00000000
C      0.94900900     1.90815600    -0.00000000
C     -0.27817100     1.17575600    -0.00000000
C     -0.26678300    -0.26312900    -0.00000000
H      5.58205300    -0.81603300     0.00000100
H      5.60294300     1.69406800     0.00000100
H      3.48342800     2.93303100     0.00000000
H      3.42532700    -2.02848900     0.00000000
H      1.81891200    -3.25847100    -0.00000000
H     -0.72408600    -4.24453200    -0.00000000
H     -2.69000800    -2.76567200     0.00000000
H     -3.55872000    -0.69324400     0.00000100
H     -3.71211200     1.61663800     0.00000100
H     -2.49759600     3.83829400     0.00000000
H     -0.33918000     5.09564100    -0.00000000
H      1.80037100     3.89966100    -0.00000000
