042
BNPAH_000386_PAH67   C24_H16_N01_B01 -1003.20363807     6.94600000     4.64681000  5272.05186187     8.40154943   228.61780471 22058.26499006    30.65146431     0.04884622     1.32917328   128.24572667    -4.65910000    -0.17121877  -107.44139924  -449.53481443    -2.78810000    -0.10246079   -64.29511391  -269.01075661     1.87100000     0.06875798    43.14628533   180.52405782
C     -2.44082500     3.59972500     1.17786000
C     -1.21844200     3.10105700     1.68214600
C     -3.18033500     2.82868600     0.30281000
C     -0.72246900     1.88233000     1.25779700
C     -2.72324300     1.55007500    -0.11393700
C     -1.43577500     1.08308500     0.31976500
C     -0.99546900    -0.21839800    -0.13459900
C     -3.56664100     0.70120100    -0.89518200
C     -3.20930600    -0.59689700    -1.13464500
C     -1.93831900    -1.09827000    -0.71282600
N      0.32314300    -0.69302200     0.07682000
C     -1.63833400    -2.49367400    -0.77240500
C     -0.49336400    -2.95367300    -0.18255100
C      0.51947700    -2.05985900     0.26666700
C      1.46396800     0.15204500     0.03518100
B      2.77865000    -0.32154100     0.69450600
C      1.72965500    -2.57012700     0.81309000
C      2.80755900    -1.77571900     1.14454100
C      1.43077500     1.36694000    -0.64868300
C      2.55322100     2.22479000    -0.68234800
C      3.79680800     1.88889900     0.00246400
C      3.92652000     0.66183800     0.66906100
C      4.87678700     2.83642700    -0.07296600
C      2.48416100     3.45647200    -1.40699100
C      4.76176500     4.01392500    -0.76952100
C      3.54758600     4.32795200    -1.45042300
H      5.80863900     2.58831400     0.44300900
H      5.59977700     4.71461100    -0.81016200
H      3.46577400     5.26613000    -2.00517400
H      1.55245700     3.70016100    -1.92564300
H     -2.80832100     4.57690500     1.49932700
H     -4.14998200     3.17735000    -0.06171800
H     -0.65394800     3.68257800     2.41435300
H      0.22213600     1.52381900     1.66326900
H     -4.53184000     1.08589700    -1.23300800
H     -3.89132000    -1.28349800    -1.64163900
H     -2.36938400    -3.18015800    -1.20432300
H     -0.28771500    -4.02147300    -0.09356700
H      3.66927600    -2.26260000     1.61552400
H      1.74254000    -3.65664600     0.94837600
H      0.54363000     1.69147200    -1.19913700
H      4.90706900     0.44815200     1.11294000
