042
BNPAH_000071_PAH69   C24_H16_N01_B01 -1003.22787970     0.00000000     4.39586000  5287.26371771     8.42579106   229.27745320 22121.91139490    30.73990534     0.04898716     1.33300845   128.61576394    -5.31530000    -0.19533367  -122.57373085  -512.84848987    -2.35560000    -0.08656670   -54.32142690  -227.28085014     2.95970000     0.10876697    68.25230395   285.56763973
C     -2.45335300    -0.55257500     0.00000100
C     -2.63874500     0.80987200     0.00000000
B     -1.39151300     1.70546200    -0.00000000
C     -1.26673500     3.21534300    -0.00000100
C     -0.03401800     3.84908400    -0.00000100
C      0.05993900     5.28950200    -0.00000100
C      1.23872800     5.95380900    -0.00000100
C      2.47291700     5.21329700    -0.00000000
C      3.70790000     5.86585700     0.00000000
C      4.93122300     5.17588200     0.00000100
C      6.18664100     5.87480200     0.00000100
C      7.36695900     5.19222000     0.00000200
C      7.39701800     3.75418700     0.00000100
C      8.63161600     3.05984000     0.00000000
C      8.67460500     1.67544400    -0.00000100
C      7.47111800     0.94295000    -0.00000200
C      6.25031100     1.60152300    -0.00000100
C      6.17168600     3.01556900    -0.00000000
C      4.90754500     3.74578400     0.00000000
C      3.65732600     3.09192500    -0.00000000
C      2.44436800     3.78279200    -0.00000000
N      1.17693800     3.10682300    -0.00000100
C      1.13372400     1.73316600    -0.00000000
C     -0.02794900     0.98525900     0.00000000
C      0.01928100    -0.45221300     0.00000100
C     -1.14914700    -1.17216200     0.00000100
H     -3.31412400    -1.23277400     0.00000100
H     -3.66944400     1.18419200    -0.00000000
H     -2.11841400     3.90457700    -0.00000100
H     -0.89069300     5.82475900    -0.00000200
H      1.27803500     7.04491700    -0.00000100
H      3.71533400     6.95898400     0.00000100
H      6.17399700     6.96754800     0.00000200
H      8.31864600     5.72968400     0.00000200
H      9.55779900     3.64059700     0.00000100
H      9.63426800     1.15350600    -0.00000100
H      7.49670500    -0.14920600    -0.00000300
H      5.33753000     1.00365100    -0.00000200
H      3.66798500     2.00695400    -0.00000100
H      2.10444000     1.24246100     0.00000000
H      0.98196400    -0.97808300     0.00000100
H     -1.10281100    -2.26519900     0.00000200
