042
BNPAH_000400_PAH70   C24_H16_N01_B01 -1003.15786232     0.02000000    16.23326000  5243.32713805     8.35577367   227.37218280 21938.08074560    30.48446010     0.04858008     1.32193130   127.54698106    -3.88400000    -0.14273437   -89.56716848  -374.74903292    -3.49240000    -0.12834333   -80.53665788  -336.96537656     0.39160000     0.01439103     9.03051060    37.78365636
C      2.70996400    -0.50071600    -0.00285500
C      2.61455100    -1.86970600    -0.00130700
C      1.34328600    -2.51622000    -0.00035700
C      1.22727000    -3.92938700     0.00121800
C     -0.01697300    -4.52882200     0.00204700
C     -1.21615000    -3.76640200     0.00145600
C     -2.48320400    -4.36070800     0.00193200
C     -3.67386300    -3.61947900     0.00125000
C     -4.90451700    -4.33324800     0.00083400
C     -6.07234500    -3.62916700    -0.00063800
C     -6.10930200    -2.20315600    -0.00105900
C     -7.40574500    -1.62427200    -0.00299900
C     -7.56345600    -0.26712300    -0.00339800
C     -6.44796000     0.62117500    -0.00120000
C     -6.72044000     2.00652600    -0.00117800
B     -5.63099300     3.04642800     0.00197800
C     -4.23793000     2.42718900     0.00542400
C     -4.04888200     1.05502800     0.00505400
C     -5.08994900     0.06496300     0.00131500
C     -4.91268000    -1.38522000     0.00039600
C     -3.65215300    -2.15502500     0.00056800
C     -2.35350800    -1.60059700    -0.00051400
C     -1.15896100    -2.32826300    -0.00004500
C      0.15149100    -1.69663400    -0.00105200
C      0.32751500    -0.31003100    -0.00264500
N      1.56894000     0.24286200    -0.00348900
H      3.65178700     0.04681600    -0.00363400
H      3.52690500    -2.46749700    -0.00080700
H      2.13670500    -4.53367600     0.00169400
H     -0.09340500    -5.61940100     0.00313800
H     -2.55540300    -5.45177100     0.00262700
H     -4.89048100    -5.42528800     0.00123400
H     -7.03135900    -4.15396100    -0.00148200
H     -8.27103300    -2.29209000    -0.00428400
H     -8.56441800     0.17325200    -0.00505100
H     -7.79152100     2.25083000    -0.00342900
H     -5.83341600     4.24377400     0.00223400
H     -3.31303900     3.02222100     0.00856800
H     -2.25886100    -0.52757500    -0.00211200
H     -3.01222800     0.73983000     0.00850700
H     -0.49954500     0.39751300    -0.00330100
H      1.64184300     1.25705700    -0.00464100
