042
BNPAH_000321_PAH54   C24_H16_N01_B01 -1003.16963308     0.00200000    12.93660000  5250.71340286     8.36754443   227.69248155 21968.98487757    30.52740351     0.04864851     1.32379350   127.72665629    -4.47880000    -0.16459287  -103.28358244  -432.13850891    -3.19090000    -0.11726341   -73.58390265  -307.87504869     1.28790000     0.04732945    29.69967978   124.26346022
C      7.85217500     1.67481600    -0.00020300
C      7.79514900     0.25203500    -0.00009500
C      6.57934900    -0.39556100     0.00000200
C      5.36018300     0.34739500    -0.00000400
C      4.09506900    -0.26802600     0.00009200
C      2.89329700     0.45261400     0.00008300
C      2.94966000     1.88394000    -0.00002500
C      4.20595300     2.49849400    -0.00011900
C      5.41668400     1.78088300    -0.00011500
C      6.69330400     2.42003400    -0.00021300
C      1.70224400     2.66973700     0.00002300
C      1.77065000     4.06130600    -0.00000300
B      0.56290800     4.97438400     0.00015100
C     -0.75904200     4.21449100     0.00036900
C     -0.75734000     2.83918600     0.00035800
C      0.40235100     1.97945900     0.00013400
C      0.33791100     0.53254100     0.00007600
C      1.58417800    -0.21839200     0.00015000
C      1.59077400    -1.61810100     0.00030000
C      0.45147200    -2.40784600     0.00033200
C     -0.77377400    -1.76434500     0.00012800
N     -1.91148100    -2.55395500     0.00006400
C     -3.17817900    -2.09750500    -0.00023700
C     -3.36643600    -0.73762100    -0.00053400
C     -2.24452500     0.11688900    -0.00046200
C     -0.90286400    -0.30914100    -0.00006900
H      8.82441300     2.17375200    -0.00027900
H      8.72373700    -0.32415000    -0.00008900
H      6.53239200    -1.48832300     0.00008600
H      4.09886300    -1.35761700     0.00016600
H      4.27562000     3.58500900    -0.00019400
H      6.73471200     3.51244400    -0.00029600
H      2.77151400     4.49860600    -0.00011600
H      0.64940300     6.18286000     0.00014900
H     -1.74883600     4.68863900     0.00055900
H     -2.49193900     1.16591300    -0.00077200
H      2.54439400    -2.13964400     0.00040600
H      0.51540300    -3.49832600     0.00045800
H     -1.75120800    -3.55831700     0.00023600
H     -3.97570300    -2.84091200    -0.00026400
H     -4.37241600    -0.31975000    -0.00083200
H     -1.73773100     2.39214600     0.00059700
