042
BNPAH_000252_PAH53   C24_H16_N01_B01 -1003.19297430     0.00000000    12.16846000  5265.36024254     8.39088565   228.32762863 22030.26725479    30.61255955     0.04878422     1.32748621   128.08294916    -4.23570000    -0.15565911   -97.67756321  -408.68292449    -3.27510000    -0.12035771   -75.52560079  -315.99911372     0.96060000     0.03530140    22.15196242    92.68381077
C      2.09412000    -1.29422900     0.00000000
N      0.91506000    -1.96909900     0.00000000
C     -0.33994500    -1.35422200     0.00000000
C     -1.50914100    -2.07511300     0.00000000
C     -2.78743500    -1.41964100     0.00000000
C     -3.99300900    -2.10228900     0.00000000
C     -5.25199100    -1.42820800     0.00000000
C     -6.47871200    -2.07618500     0.00000000
C     -7.73740100    -1.39640500    -0.00000000
C     -8.93598800    -2.11387200    -0.00000000
B    -10.27753700    -1.40669200    -0.00000100
C    -10.25298200     0.14650600    -0.00000000
C    -11.44790700     0.89857300    -0.00000000
C    -11.44466700     2.29248600     0.00000000
C    -10.21765500     2.96870100     0.00000100
C     -9.02046700     2.25320000     0.00000100
C     -9.00796200     0.84260600     0.00000000
C     -7.73370200     0.08062900     0.00000000
C     -6.51622500     0.71949700     0.00000000
C     -5.25540800     0.03046900     0.00000000
C     -4.05578800     0.71961400    -0.00000000
C     -2.79606600     0.04597100    -0.00000000
C     -1.59732100     0.75273100    -0.00000000
C     -0.33462000     0.10341300    -0.00000000
C      0.88638100     0.78348600    -0.00000100
C      2.11567100     0.08328000    -0.00000000
H      2.99606100    -1.90742600     0.00000000
H      0.93449300    -2.98448700     0.00000100
H     -1.47861100    -3.16832800     0.00000100
H     -3.98998600    -3.19577600     0.00000100
H     -6.50230600    -3.16965600     0.00000000
H     -8.83601100    -3.20626400    -0.00000100
H    -11.33396600    -1.99829600    -0.00000100
H    -12.39897800     0.35839600    -0.00000100
H    -12.38312400     2.85299100     0.00000000
H    -10.19139400     4.06167600     0.00000100
H     -8.08671400     2.81845100     0.00000100
H     -6.46651100     1.80981400     0.00000000
H     -4.06126300     1.81351400    -0.00000000
H     -1.61889600     1.84575000    -0.00000100
H      0.88344300     1.87600200    -0.00000100
H      3.07028000     0.60845200    -0.00000100
