042
BNPAH_000118_PAH50   C24_H16_N01_B01 -1003.19096167     0.00700000    11.86390000  5264.09730111     8.38887303   228.27286231 22024.98310784    30.60521687     0.04877252     1.32716780   128.05222738    -3.89470000    -0.14312759   -89.81391634  -375.78142598    -3.20360000    -0.11773013   -73.87677161  -309.10041242     0.69110000     0.02539746    15.93714473    66.68101356
C     -2.95080900     0.08024000     0.00030800
C     -2.99889600     1.49362300     0.00096700
C     -1.81564900     2.22198600     0.00102700
C     -0.54393600     1.59547100     0.00044600
B      0.76953700     2.39246200     0.00049500
C      2.08383300     1.60030700    -0.00014200
C      1.97084200     0.15814600    -0.00078200
C      3.17609500    -0.59918300    -0.00155600
C      4.42070100    -0.01980300    -0.00150700
C      4.62752300     1.40648300    -0.00061000
C      5.91072300     2.09550100    -0.00033200
C      5.92849900     3.54370000    -0.00045900
C      7.13494800     4.28628000    -0.00074000
C      8.37210100     3.68717500    -0.00075800
C      8.44867300     2.27409500    -0.00020000
C      9.69580900     1.59962000     0.00015300
C      9.78320000     0.21042500     0.00108100
C      8.60353500    -0.51635000     0.00176700
N      7.41840700     0.13963100     0.00132500
C      7.22873800     1.49614400     0.00017300
C      4.70384400     4.25940600    -0.00028600
C      3.50259600     3.61069800    -0.00002600
C      3.39757300     2.18494500    -0.00020200
C      0.74121600    -0.51536100    -0.00082500
C     -0.50937800     0.15530100    -0.00021900
C     -1.73272500    -0.57655800    -0.00027500
H     -3.88109100    -0.49493800     0.00025700
H     -3.96536000     2.00474500     0.00142400
H     -1.85483400     3.31564100     0.00153500
H      0.70711900     3.60285300     0.00105500
H      3.10829700    -1.69153900    -0.00227900
H      6.57561200    -0.42424000     0.00210000
H      7.05504800     5.37599900    -0.00095500
H      9.29354700     4.27179900    -0.00099600
H     10.60543800     2.20418300    -0.00023300
H     10.74326600    -0.30583000     0.00140300
H      8.55072600    -1.60459800     0.00268300
H      5.21352900    -0.76682800    -0.00254600
H      4.74266200     5.35151000    -0.00030100
H      2.57278000     4.17740200     0.00017900
H      0.74882000    -1.61013600    -0.00136200
H     -1.69799000    -1.67039800    -0.00078700
