030
BNPAH_000017_PAH09   C16_H12_N01_B01  -696.10183114     0.00200000    11.01554000  3664.91612419     5.84041561   158.92580360 15334.00906361    30.54096770     0.04867013     1.32438170   127.78340886    -4.41270000    -0.16216374  -101.75928021  -425.76082841    -3.16740000    -0.11639980   -73.04197977  -305.60764337     1.24530000     0.04576393    28.71730044   120.15318504
B     -3.73417700     0.64773400    -0.12417500
C     -2.43135800     1.41091500    -0.11512000
C     -1.20844100     0.74241200    -0.00237600
C      0.05144500     1.41599200     0.01132600
C      1.24272100     0.73123100     0.12351600
C      1.30815000    -0.71345800     0.23535000
C      0.06664700    -1.38336600     0.22255500
C     -1.15877700    -0.72612900     0.11064100
C     -2.38038100    -1.48868800     0.10572300
C     -3.61130700    -0.89523800    -0.00171900
C      2.58367800    -1.35153200     0.34799200
C      3.78452000    -0.54672900     0.34882300
C      5.07106100    -1.15280500     0.45966700
C      5.18954300    -2.51872300     0.56782800
C      4.01496100    -3.32183000     0.56809300
C      2.75836900    -2.76219700     0.46235800
C      3.65742800     0.84657200     0.23793900
N      2.45886700     1.41874900     0.13391600
H     -4.81450200     1.18960900    -0.22013500
H     -2.37079100     2.50444000    -0.19431300
H      0.06119100     2.50774400    -0.07019800
H      0.04972600    -2.47247200     0.30371600
H     -2.27248800    -2.57774400     0.19318800
H     -4.48256100    -1.56279200     0.00409400
H      5.95750900    -0.51291100     0.45691100
H      1.88279500    -3.41175900     0.46633500
H      4.52326800     1.51092400     0.23227000
H      2.40687500     2.43242900     0.05521300
H      6.17189500    -2.98701900     0.65282800
H      4.11126100    -4.40689900     0.65409200
