042
BNPAH_000216_PAH54   C24_H16_N01_B01 -1003.17037916     0.00300000     8.34353000  5251.18157307     8.36829051   227.71278334 21970.94370172    30.53012542     0.04865285     1.32391153   127.73804476    -4.92270000    -0.18090589  -113.52015970  -474.96834818    -2.88780000    -0.10612469   -66.59425055  -278.63034430     2.03490000     0.07478120    46.92590915   196.33800388
C      7.93666900     1.59690400     0.00034100
C      7.76876600     0.16063600     0.00013700
C      6.53730400    -0.44421700    -0.00002200
C      5.33875800     0.35265700     0.00000800
C      4.08069900    -0.22943500    -0.00015100
C      2.85411200     0.51876100    -0.00011700
C      2.91229300     1.96955800     0.00007700
C      4.12858800     2.63682400     0.00024000
B      5.45431400     1.89383100     0.00022700
C      6.87940800     2.47461300     0.00039300
C      1.61786600     2.65163700    -0.00002400
C      1.61636100     4.06775500    -0.00003900
C      0.46917300     4.83574100    -0.00031600
C     -0.75388500     4.16746400    -0.00063600
C     -0.79030700     2.77911200    -0.00059000
C      0.36489000     1.96001400    -0.00020000
N      0.33903000     0.50174500    -0.00009500
C      1.59599100    -0.15271400    -0.00023100
C      1.62594400    -1.58707900    -0.00051700
C      0.52172200    -2.35864400    -0.00056900
C     -0.75942500    -1.74228600    -0.00020800
C     -1.88753600    -2.59160500    -0.00011300
C     -3.17759900    -2.09584300     0.00040900
C     -3.31408500    -0.70769000     0.00089400
C     -2.21017700     0.14559600     0.00077800
C     -0.86761600    -0.31154300     0.00012700
H      8.97045900     1.96538500     0.00045600
H      8.67082600    -0.45900700     0.00011000
H      6.47058700    -1.53994500    -0.00017500
H      4.05503800    -1.31960400    -0.00028800
H      4.11465900     3.72967000     0.00037000
H      7.10911900     3.54762000     0.00055100
H      2.57934700     4.57189900     0.00013500
H      0.52650000     5.92602000    -0.00034100
H     -1.69966200     4.71349000    -0.00094000
H     -2.48930800     1.17931200     0.00130600
H      2.59447000    -2.06778400    -0.00070700
H      0.59393800    -3.44778900    -0.00079800
H     -1.70041300    -3.66790300    -0.00042800
H     -4.04573800    -2.75698800     0.00050300
H     -4.30568200    -0.24954700     0.00140000
H     -1.78310700     2.38342200    -0.00095600
