042
BNPAH_000441_PAH70   C24_H16_N01_B01 -1003.23086593     0.00000000     4.43860000  5289.13760305     8.42877729   229.35871256 22129.75173116    30.75080002     0.04900452     1.33348089   128.66134728    -4.97560000    -0.18284993  -114.74006269  -480.07242229    -2.14810000    -0.07894122   -49.53636318  -207.26014356     2.82750000     0.10390871    65.20369950   272.81227873
C      2.72626800    -0.51354900     0.00002400
C      2.59968100    -1.89417200     0.00001100
C      1.32582800    -2.51136300     0.00000300
C      1.20618600    -3.94782000    -0.00000900
C     -0.01209900    -4.55786200    -0.00001600
C     -1.22518700    -3.78393200    -0.00001200
C     -2.48566300    -4.38691200    -0.00001600
C     -3.67884500    -3.64629300    -0.00001100
C     -4.92554800    -4.34373000    -0.00000700
C     -6.09068600    -3.64310500     0.00000500
C     -6.10382300    -2.20901300     0.00000900
C     -7.39607400    -1.60046800     0.00002500
C     -7.53267700    -0.24890700     0.00002900
C     -6.36675200     0.58214300     0.00001000
C     -6.64121800     1.96587500     0.00000900
N     -5.66682600     2.88265500    -0.00001500
C     -4.34616000     2.56573000    -0.00004200
B     -3.91698100     1.12862300    -0.00004300
C     -5.02203900     0.03674400    -0.00001100
C     -4.90469400    -1.42948900    -0.00000300
C     -3.64319200    -2.19894100    -0.00000600
C     -2.35999200    -1.62182300     0.00000200
C     -1.16225700    -2.35130600    -0.00000100
C      0.14863100    -1.70088700     0.00000800
C      0.30957000    -0.29502200     0.00002000
C      1.56940000     0.28878000     0.00002800
H      3.71601500    -0.05059900     0.00003000
H      3.48942900    -2.52980700     0.00000800
H      2.12405800    -4.54183400    -0.00001200
H     -0.09016400    -5.64825200    -0.00002500
H     -2.55319600    -5.47863200    -0.00002100
H     -4.92065100    -5.43655800    -0.00001100
H     -7.05338500    -4.16062300     0.00001200
H     -8.27363000    -2.25184700     0.00003600
H     -8.52131000     0.21777300     0.00004200
H     -7.66555700     2.33824700     0.00002600
H     -5.95019000     3.86173600    -0.00001400
H     -3.68572700     3.43568000    -0.00006200
H     -2.29703900    -0.54522100     0.00001100
H     -2.72757100     0.99479700    -0.00007400
H     -0.56925200     0.35144300     0.00002400
H      1.65985900     1.37777200     0.00003800
