036
BNPAH_000029_PAH19   C20_H14_N01_B01  -849.66619213     0.00000000    10.43449000  4476.92872025     7.13444005   194.13800218 18731.46976553    30.66389534     0.04886603     1.32971234   128.29773810    -4.70830000    -0.17302683  -108.57597821  -454.28189281    -2.61710000    -0.09617665   -60.35176020  -252.51176469     2.09120000     0.07685018    48.22421800   201.77012812
C      2.55697100     0.18160700    -0.00000100
B      2.68639000    -1.36345200    -0.00000100
C      1.38016500    -2.14151700    -0.00000000
C      0.15163600    -1.48490400     0.00000000
C     -1.10132600    -2.19082100     0.00000100
C     -2.32904800    -1.56539700     0.00000100
C     -2.35575000    -0.10539500     0.00000100
C     -3.57220500     0.54967000     0.00000100
N     -4.74197100    -0.12999500     0.00000100
C     -4.81841300    -1.51941800     0.00000100
C     -3.62135500    -2.25802600     0.00000100
C     -3.72617700    -3.68150700     0.00000100
C     -4.94140700    -4.31971800     0.00000000
C     -6.16207200    -3.58277900     0.00000000
C     -7.42561400    -4.23011000    -0.00000000
C     -8.60120100    -3.50354000    -0.00000100
C     -8.55334500    -2.09077400    -0.00000100
C     -7.33707900    -1.43176900    -0.00000000
C     -6.11017400    -2.15030400     0.00000000
C     -1.12822700     0.61858900     0.00000000
C      0.09967400    -0.01360600     0.00000000
C      1.31981300     0.76339800    -0.00000000
H      3.42397400     0.85384500    -0.00000100
H      3.76754700    -1.90940400    -0.00000100
H      1.33793400    -3.23841000     0.00000000
H     -1.04074500    -3.28115300     0.00000100
H     -3.64779000     1.63847100     0.00000100
H     -5.60830000     0.39542400     0.00000100
H     -2.81116300    -4.27390400     0.00000100
H     -4.98752900    -5.41118300     0.00000000
H     -7.45115000    -5.32270100    -0.00000100
H     -9.56606200    -4.01534200    -0.00000100
H     -9.48137700    -1.51465400    -0.00000100
H     -7.34915800    -0.33805400    -0.00000000
H     -1.16816800     1.71259500     0.00000000
H      1.19542200     1.85425100    -0.00000100
