036
BNPAH_000026_PAH16   C20_H14_N01_B01  -849.69351203     0.00000000     3.68803000  4494.07221974     7.16175995   194.88141467 18803.19816739    30.78131657     0.04905315     1.33480421   128.78902853    -5.16490000    -0.18980658  -119.10542443  -498.33709580    -2.11190000    -0.07761089   -48.70157135  -203.76737451     3.05300000     0.11219568    70.40385308   294.56972129
C      5.03189400     1.56041300     0.00000000
B      5.10937800     0.06076400     0.00000000
C      3.75455800    -0.65092500     0.00000000
C      2.53743200     0.10452600     0.00000000
C      2.61563600     1.50778000    -0.00000000
N      3.80247700     2.14747200    -0.00000000
C      1.23535600    -0.57306900    -0.00000000
C      1.21734700    -2.00960100    -0.00000000
C      2.45648200    -2.73772600     0.00000000
C      3.65732300    -2.08577500     0.00000000
C     -0.01745900    -2.67531400    -0.00000000
C     -1.23881100    -1.98829400    -0.00000000
C     -2.49082000    -2.69817000    -0.00000000
C     -3.67857600    -2.03114300    -0.00000000
C     -3.72789300    -0.59171100    -0.00000000
C     -4.97096600     0.08568300     0.00000000
C     -5.03330200     1.47025600     0.00000000
C     -3.83981000     2.21720100     0.00000000
C     -2.61002100     1.57300400    -0.00000000
C     -2.51232900     0.16108800    -0.00000000
C     -1.23439200    -0.55103800    -0.00000000
C      0.00697200     0.10618200    -0.00000000
H      5.85121100     2.28383600     0.00000000
H      6.15915300    -0.53548500     0.00000100
H      1.74208000     2.15646000    -0.00000000
H      3.75423600     3.16516000    -0.00000000
H      2.41249000    -3.83028300     0.00000000
H      4.58912700    -2.65708800     0.00000000
H     -0.02647400    -3.76896400    -0.00000000
H     -2.46609000    -3.79090700    -0.00000000
H     -4.62366800    -2.58048500    -0.00000000
H     -5.88942400    -0.50754000     0.00000000
H     -6.00013000     1.97906400     0.00000100
H     -3.87936300     3.30916700     0.00000000
H     -1.70305700     2.17974700    -0.00000000
H      0.00943600     1.19573600    -0.00000000
