036
BNPAH_000008_PAH16   C20_H14_N01_B01  -849.66948964     0.00000000     7.65434000  4478.99793784     7.13773755   194.22773195 18740.12737192    30.67806807     0.04888861     1.33032693   128.35703680    -4.78130000    -0.17570954  -110.25939821  -461.32532211    -2.79040000    -0.10254531   -64.34815317  -269.23267288     1.99090000     0.07316423    45.91124504   192.09264924
B      5.20119300     1.46358500    -0.00000100
C      5.03683400    -0.03236300    -0.00000100
C      3.74335600    -0.60907400    -0.00000000
C      2.51717300     0.18132300     0.00000000
C      2.64149700     1.58668400     0.00000000
C      3.87716200     2.23150400    -0.00000000
C      1.24166700    -0.50662500     0.00000100
C      1.20487000    -1.93800900     0.00000100
N      2.41716500    -2.61811100     0.00000000
C      3.60458200    -2.00696600    -0.00000000
C      0.00745000    -2.65066900     0.00000100
C     -1.22591700    -1.98375300     0.00000000
C     -2.46433100    -2.71257800     0.00000000
C     -3.66182700    -2.06165200    -0.00000000
C     -3.73111300    -0.62304800    -0.00000000
C     -4.98375900     0.03612500    -0.00000100
C     -5.06449800     1.41992300    -0.00000100
C     -3.88235300     2.18395200     0.00000000
C     -2.64309200     1.55764700     0.00000100
C     -2.52782400     0.14812600     0.00000000
C     -1.23622900    -0.54324400     0.00000100
C     -0.01289500     0.13960600     0.00000100
H      6.27812800     2.01713400    -0.00000100
H      5.86867700    -0.74936600    -0.00000100
H      1.72446400     2.18481600     0.00000100
H      3.83337500     3.32852600    -0.00000000
H      2.38552800    -3.63469700     0.00000000
H      4.48076500    -2.65930700    -0.00000000
H      0.02634500    -3.74471900     0.00000000
H     -2.42553200    -3.80500800    -0.00000000
H     -4.59852600    -2.62483600    -0.00000100
H     -5.89392900    -0.56954900    -0.00000100
H     -6.03826900     1.91513100    -0.00000100
H     -3.93668000     3.27502800     0.00000000
H     -1.74496400     2.17675600     0.00000100
H     -0.01849500     1.22772900     0.00000100
