042
BNPAH_000393_PAH55   C24_H16_N01_B01 -1003.23706989     0.00900000     3.47072000  5293.03064551     8.43498125   229.52753086 22146.04022081    30.77343399     0.04904059     1.33446239   128.75604781    -5.38900000    -0.19804210  -124.27329324  -519.95945890    -2.22370000    -0.08171947   -51.27974061  -214.55443473     3.16530000     0.11632263    72.99355262   305.40502417
C      2.63717000    -0.23586400    -0.00086500
C      2.44116300    -1.59910600     0.00055500
C      1.13921700    -2.16672900     0.00065800
C      1.04054800    -3.58091000     0.00167500
C     -0.17996300    -4.18156700     0.00143600
C     -1.39980600    -3.43806800     0.00051500
C     -2.64386600    -4.22083000     0.00013200
C     -2.63850600    -5.64083800     0.00032300
C     -3.80901100    -6.38186600    -0.00018600
C     -5.04749700    -5.72169200    -0.00090400
C     -5.08121600    -4.33742100    -0.00108100
C     -3.89626600    -3.55986100    -0.00057600
C     -3.92580200    -2.09978300    -0.00049900
C     -5.16733200    -1.44388700    -0.00071100
C     -5.34266200    -0.05408200    -0.00017100
B     -6.70492800     0.67491100    -0.00031000
C     -6.61958700     2.19209800     0.00058200
C     -5.37905500     2.78480800     0.00144700
N     -4.21125100     2.07820000     0.00152500
C     -4.13752200     0.69382400     0.00072900
C     -2.88187100     0.07324200     0.00084400
C     -2.70139400    -1.32418900     0.00002800
C     -1.38061600    -2.01293600     0.00000800
C     -0.05565000    -1.35481800    -0.00043400
C      0.21884500     0.04852300    -0.00220200
C      1.49624500     0.58602000    -0.00237100
H      3.64138100     0.19338100    -0.00100000
H      3.29228400    -2.28508000     0.00153300
H      1.95632200    -4.17696100     0.00243600
H     -0.21511300    -5.26728900     0.00201500
H     -1.70027100    -6.19139900     0.00083900
H     -3.76121100    -7.47316700    -0.00003200
H     -5.98047300    -6.28997200    -0.00130600
H     -6.05405200    -3.84874400    -0.00160300
H     -6.07812600    -2.04061600    -0.00120300
H     -7.74343200     0.05631000    -0.00105000
H     -7.47532100     2.87318200     0.00062600
H     -5.23085200     3.86971600     0.00214100
H     -3.33853500     2.59593600     0.00218900
H     -0.56820000     0.78420700    -0.00378400
H     -2.04304800     0.74993600     0.00182800
H      1.60616900     1.67337100    -0.00377100
