038
BNPAH_000499_PAH48   C22_H14_N01_B01  -925.89623037     0.00000000     1.94666000  4849.78940297     7.72863137   210.30677157 20291.51886203    30.69486964     0.04891539     1.33105552   128.42733457    -5.25070000    -0.19295967  -121.08401945  -506.61553737    -2.25890000    -0.08301304   -52.09147190  -217.95071845     2.99180000     0.10994662    68.99254754   288.66481892
C      1.90184900     1.54251900     0.00001500
C      0.76076600     2.36864900     0.00003600
C     -0.51411300     1.82830300     0.00003200
C     -0.77232900     0.42439700     0.00000400
C      0.41407300    -0.39465000    -0.00001000
C      0.29131300    -1.80602700    -0.00002400
C     -0.94410600    -2.38497300    -0.00002000
C     -2.15735700    -1.63255100    -0.00000900
C     -3.40836200    -2.43606100    -0.00000200
C     -3.41898300    -3.84822900     0.00000000
C     -4.61985800    -4.56948100     0.00001000
C     -5.85522000    -3.92511300     0.00001600
C     -5.88805000    -2.51845400     0.00001300
C     -7.12424600    -1.77067100     0.00001600
C     -7.15552300    -0.41151400     0.00000900
N     -5.99679500     0.36484200    -0.00000100
C     -6.08267200     1.73118700    -0.00001400
C     -4.93892200     2.48820200    -0.00002900
C     -3.63397800     1.92498500    -0.00002900
C     -3.39434400     0.54490200    -0.00001000
C     -2.10553600    -0.19766100    -0.00000400
B     -4.68086200    -0.28199300    -0.00000100
C     -4.66743200    -1.78759700     0.00000500
C      1.71488400     0.17735700    -0.00000700
H      2.90526100     1.97431900     0.00001800
H      0.87313800     3.45577200     0.00005800
H     -2.85236900     2.67626400    -0.00004700
H      1.19509400    -2.42044700    -0.00003500
H     -0.99486700    -3.47117700    -0.00002700
H     -2.49633100    -4.42686900    -0.00000400
H     -4.57839200    -5.66171500     0.00001200
H     -6.78427700    -4.50132900     0.00002200
H     -8.07454000    -2.30903100     0.00002300
H     -8.09565100     0.14502000     0.00000900
H     -7.08352800     2.16940900    -0.00001500
H     -5.04028200     3.57496400    -0.00004300
H     -1.32301400     2.54148200     0.00005500
H      2.57079100    -0.50293900    -0.00002100
