042
BNPAH_000135_PAH68   C24_H16_N01_B01 -1003.18546205     0.00100000     9.35904000  5260.64623243     8.38337340   228.12320981 22010.54383649    30.58515251     0.04874054     1.32629773   127.96827810    -4.59330000    -0.16880066  -105.92401518  -443.18607953    -3.14880000    -0.11571627   -72.61305358  -303.81301618     1.44450000     0.05308440    33.31096160   139.37306335
C      2.18568400     2.07734200     0.00000100
C      3.22020800     1.15607400    -0.00000300
C      2.99472500    -0.24121600    -0.00000200
C      4.17368600    -1.07717500    -0.00000500
C      4.11637900    -2.43712900    -0.00000300
B      2.74116600    -3.10831800    -0.00000000
C      2.62723500    -4.64993400     0.00000100
C      1.40323400    -5.24052800     0.00000200
C      0.20523500    -4.44029400     0.00000200
C     -0.98059300    -5.14554800     0.00000200
N     -2.22374000    -4.56676200     0.00000200
C     -3.36539700    -5.33190800     0.00000100
C     -4.62701700    -4.77089400     0.00000000
C     -5.82131100    -5.57132000    -0.00000000
C     -7.05192700    -4.97212500    -0.00000200
C     -7.17154200    -3.54080300    -0.00000300
C     -6.05865300    -2.74206200    -0.00000300
C     -4.74396200    -3.31990500    -0.00000100
C     -3.57701600    -2.56813700    -0.00000100
C     -2.28756600    -3.15537400     0.00000000
C     -1.10018700    -2.42173600     0.00000000
C      0.21661100    -2.95491400     0.00000200
C      1.46305100    -2.24194500     0.00000100
C      1.64869700    -0.77541600     0.00000100
C      0.62747400     0.21740700     0.00000500
C      0.87347800     1.58641800     0.00000500
H      2.38706700     3.15111900     0.00000000
H      4.25838500     1.50089200    -0.00000600
H      5.13243300    -0.54241300    -0.00000700
H      5.05906500    -2.99825000    -0.00000500
H      3.51126500    -5.29978300     0.00000000
H      1.26963700    -6.32943400     0.00000300
H     -0.98238100    -6.23634500     0.00000300
H     -3.20218400    -6.41009100     0.00000200
H     -5.72850300    -6.66004500     0.00000000
H     -7.95746700    -5.58272400    -0.00000200
H     -8.16695400    -3.09107600    -0.00000400
H     -6.15155500    -1.65353000    -0.00000300
H     -3.62687900    -1.47781400    -0.00000200
H     -0.41915000    -0.05671500     0.00001000
H     -1.26955500    -1.35474000    -0.00000100
H      0.02576300     2.27716200     0.00000800
