036
BNPAH_000174_PAH13   C20_H14_N01_B01  -849.63985597     4.81500000    10.03710000  4460.40252673     7.10810388   193.42135861 18662.32417184    30.55070224     0.04868564     1.32480383   127.82413817    -4.52280000    -0.16620984  -104.29824655  -436.38386356    -2.87370000    -0.10560653   -66.26909682  -277.26990110     1.64910000     0.06060331    38.02914973   159.11396246
C      0.05202000    -0.72349700     0.76834900
C      0.07408500     0.73500300     0.75520600
C     -0.00047400     2.99812500    -0.29354200
C     -0.03280900    -2.98397000    -0.28614600
C      0.19093500    -0.66169100     3.21355300
N     -0.14830700     0.63762500     3.16034100
C      0.28077300    -1.38932900     2.01839400
C     -0.22544400     1.37147700     2.01125500
C      0.18433000     3.85315300    -1.38819200
C     -0.33618400    -3.81636000    -1.39285700
C      0.35938600     1.58449300    -0.35876100
C     -0.26841200    -1.57033400    -0.37176500
C      0.43606300    -3.56126200     0.94015500
C     -0.49697200     3.51049000     0.95322000
C      0.53337500    -2.80260200     2.06826300
C     -0.55977100     2.74920500     2.09067700
B      0.84959600     3.36545800    -2.66272100
C     -0.92943600    -3.30030900    -2.53068900
C      1.06179600     1.11391200    -1.51568500
C     -0.91953300    -1.08394300    -1.53784800
C      1.32558000     1.90685300    -2.61262700
C     -1.25167000    -1.92691000    -2.58364800
H     -0.12037200    -4.88520400    -1.31590100
H     -0.13457800     4.89196500    -1.22999400
H      0.31362000    -1.10931900     4.19895700
H     -0.31453900     1.13492700     4.03299000
H      0.63972200    -4.63438100     0.97114300
H     -0.77087900     4.56818700     0.99521500
H      0.79134900    -3.25355300     3.02970200
H     -0.84908500     3.17961200     3.05388000
H      1.03105400     4.07989500    -3.62493500
H     -1.16893400    -3.95355700    -3.37286000
H      1.42807300     0.08288500    -1.48622600
H     -1.17052900    -0.02649200    -1.60558300
H      1.90955100     1.43908800    -3.41562700
H     -1.76338000    -1.51963900    -3.45838900
