036
BNPAH_000452_PAH24   C20_H14_N01_B01  -849.62083713     0.00700000     9.85573000  4448.46802237     7.08908504   192.90382952 18612.39020560    30.46895906     0.04855538     1.32125911   127.48212471    -4.30690000    -0.15827566   -99.31947423  -415.55268019    -3.08590000    -0.11340473   -71.16254511  -297.74408874     1.22100000     0.04487092    28.15692912   117.80859145
C     -1.61128800     1.88382100     0.00024900
C     -0.38740900     2.54984500     0.00105300
C      0.87483200     1.90226000     0.00120800
C      0.99221400     0.50948900     0.00053400
C      2.28506700    -0.11613400     0.00068500
C      2.48248000    -1.48566500    -0.00000400
C      1.25980500    -2.29291900    -0.00056800
C      1.29766500    -3.68295600    -0.00069400
C      2.51950500    -4.33022000    -0.00016000
C      3.71624000    -3.60937000     0.00020600
N      3.76715300    -2.20331800    -0.00003000
C      5.06750300    -1.59003800    -0.00027700
C      5.31810000    -0.19860600    -0.00147000
C      6.60631600     0.33549500    -0.00155000
C      7.74034800    -0.47958800    -0.00050400
C      7.54005100    -1.84936800     0.00045400
C      6.24642800    -2.41451500     0.00049100
C      6.13883100    -3.83834200     0.00112700
C      4.90904000    -4.39840100     0.00084600
C     -0.01984800    -1.66359300    -0.00078700
C     -0.21592100    -0.29933900    -0.00031200
B     -1.62237900     0.37173400    -0.00050200
H     -2.51362300     2.50590700     0.00022400
H     -0.36664900     3.64778300     0.00161500
H      1.78198200     2.51512500     0.00186300
H      4.52791600     0.52669600    -0.00253500
H      0.36107400    -4.24400600    -0.00103100
H      2.59290600    -5.41705400    -0.00004000
H      3.07993100     0.60721300     0.00154100
H      6.70856300     1.42289000    -0.00249100
H      8.74534600    -0.05407800    -0.00056400
H      8.38863800    -2.53754300     0.00112800
H      7.04671700    -4.44434400     0.00164400
H      4.77026900    -5.47952800     0.00111500
H     -0.88710500    -2.33145500    -0.00127000
H     -2.61954700    -0.31785800    -0.00119300
