038
BNPAH_000019_PAH29   C22_H14_N01_B01  -925.82381580     0.00000000    18.22817000  4804.34856942     7.65621679   208.33627054 20101.39441445    30.40726943     0.04845707     1.31858399   127.22401530    -4.07020000    -0.14957709   -93.86104252  -392.71460190    -3.48120000    -0.12793174   -80.27837974  -335.88474083     0.58900000     0.02164535    13.58266278    56.82986107
B      7.57803800     2.03317300     0.00000100
C      7.48640100     0.49530600     0.00000100
C      6.26604200    -0.16469500     0.00000000
C      5.02298800     0.52059200    -0.00000000
C      5.03999700     1.99404500    -0.00000000
C      6.24784600     2.72617400     0.00000000
C      3.78964400     2.65177400    -0.00000000
C      2.55691300     1.98623600    -0.00000100
C      1.32357500     2.69322300    -0.00000100
C      0.11175300     2.03946900    -0.00000100
C      0.04267100     0.61776400    -0.00000000
C      1.26873500    -0.12615800    -0.00000100
C      1.23358900    -1.57149500    -0.00000000
C      2.46665500    -2.26945300    -0.00000000
C      3.67071700    -1.59612500    -0.00000000
C      3.75930700    -0.17371900    -0.00000000
C      2.52300800     0.54621000    -0.00000100
C     -0.00519400    -2.25405900    -0.00000000
C     -1.19161500    -1.54353800    -0.00000000
N     -2.41505900    -2.19569800     0.00000000
C     -3.61510700    -1.57874100     0.00000100
C     -3.67424800    -0.19673100     0.00000100
C     -2.47248400     0.53312200     0.00000000
C     -1.21789100    -0.08979200    -0.00000000
H      8.64354300     2.61312300     0.00000100
H      8.37376200    -0.15226800     0.00000100
H      6.25425000    -1.25922100    -0.00000000
H      6.12356500     3.81731500     0.00000100
H      3.78778500     3.74633600    -0.00000000
H      1.34861900     3.78616500    -0.00000100
H     -0.80477300     2.63116900    -0.00000100
H      2.45418900    -3.36226100    -0.00000000
H      4.58828400    -2.18480900    -0.00000000
H     -0.01633200    -3.34728800    -0.00000000
H     -2.39095900    -3.21269600     0.00000000
H     -4.49406500    -2.22387700     0.00000100
H     -4.64136500     0.30470100     0.00000100
H     -2.52976300     1.62211900     0.00000000
