042
BNPAH_000037_PAH33   C24_H16_N01_B01 -1003.18376204     0.00100000    10.08389000  5259.57946099     8.38167339   228.07695022 22006.08046478    30.57895035     0.04873066     1.32602878   127.94232826    -4.49890000    -0.16533153  -103.74709945  -434.07786411    -3.12640000    -0.11489308   -72.09649730  -301.65174472     1.37250000     0.05043845    31.65060215   132.42611938
C      2.00835500    -1.54576000    -0.00010400
B      0.76757600    -2.43346300    -0.00034200
C     -0.56796200    -1.71521500    -0.00032900
C     -0.72699200    -0.30808900    -0.00009400
C      0.52869600     0.44970700     0.00005800
C      0.53755700     1.85837500     0.00016900
C     -0.62074300     2.60617400     0.00013800
C     -1.86545800     1.94642000     0.00005200
C     -3.04925900     2.73255500     0.00003500
C     -4.31246800     2.20753700    -0.00000700
C     -4.53612000     0.79728100     0.00001500
C     -3.31340400     0.00957500     0.00004600
N     -3.46786400    -1.35180100     0.00020000
C     -4.62474500    -1.99566700     0.00025200
C     -5.83382500    -1.30204300     0.00015600
C     -5.83489600     0.14101200     0.00003800
C     -7.17357500     0.77193400    -0.00002800
C     -7.44804300     2.16829400    -0.00013300
C     -8.73330200     2.69265200    -0.00019600
C     -9.85559900     1.85075900    -0.00015800
C     -9.64788200     0.48419300    -0.00005400
C     -8.34610200    -0.07235900     0.00001300
C     -8.24413000    -1.50250700     0.00012500
C     -7.02638400    -2.09698300     0.00019800
C     -1.96707000     0.51232000    -0.00001000
C      1.81633000    -0.18745300     0.00006300
H      3.04198900    -1.91203800    -0.00008900
H      0.81108700    -3.64656400    -0.00055100
H     -2.58785100    -1.88076600     0.00030200
H      1.50922400     2.36043800     0.00025700
H     -0.59511800     3.69779900     0.00019900
H     -2.93172000     3.81926100     0.00005600
H     -6.65204000     2.89659100    -0.00016900
H     -1.38972800    -2.44279200    -0.00059800
H     -4.58126400    -3.08578100     0.00037200
H     -5.12686800     2.91332800    -0.00002300
H     -8.85988100     3.77755100    -0.00027600
H    -10.86645300     2.26400000    -0.00020800
H    -10.49689300    -0.20382500    -0.00002000
H     -9.16293000    -2.09265400     0.00015400
H     -6.92359700    -3.18445800     0.00029000
H      2.67052100     0.50246500     0.00019900
