042
BNPAH_000058_PAH73   C24_H16_N01_B01 -1003.21971992     0.00000000     7.48554000  5282.14337375     8.41763128   229.05541408 22100.48787577    30.71013589     0.04893972     1.33171752   128.49120856    -4.88600000    -0.17955719  -112.67383759  -471.42733646    -2.99800000    -0.11017447   -69.13552294  -289.26302798     1.88800000     0.06938272    43.53831465   182.16430848
C      8.12021200     0.06011300     0.00000100
C      7.04205400    -0.79209800     0.00000000
B      5.61860800    -0.19478200    -0.00000000
C      4.30892500    -0.93902400    -0.00000100
C      3.09179500    -0.23110000    -0.00000100
C      1.82153100    -0.84746700    -0.00000100
C      0.61205000    -0.13847800    -0.00000100
C      0.65569700     1.28693000    -0.00000100
N      1.87491800     1.87229600    -0.00000100
C      3.09691900     1.23556600    -0.00000100
C      4.26940200     1.99294800    -0.00000100
C      5.52774700     1.36628200    -0.00000000
C      6.73852600     2.12389300     0.00000000
C      7.96459000     1.49107200     0.00000100
C     -0.55964600     2.08079200    -0.00000100
C     -0.56822100     3.47822400    -0.00000100
C     -1.76678700     4.22289400    -0.00000000
C     -1.77668400     5.65001800    -0.00000100
C     -2.96590100     6.34568100    -0.00000000
C     -4.20680300     5.65017800     0.00000100
C     -4.23488600     4.27237000     0.00000100
C     -3.02409800     3.51812000     0.00000100
C     -3.00955400     2.10726800     0.00000100
C     -1.82199500     1.37414800     0.00000000
C     -1.83238400    -0.06956800     0.00000000
C     -0.67583500    -0.78744500    -0.00000000
H      9.14751200    -0.32417100     0.00000200
H      7.24490600    -1.87049400     0.00000000
H      4.21889500    -2.03262100    -0.00000100
H      1.78284900    -1.94064900    -0.00000100
H      1.91033000     2.88913200    -0.00000100
H      4.18266300     3.08901500    -0.00000100
H      6.70317400     3.22060400     0.00000100
H      8.87248600     2.10299900     0.00000200
H      0.36627400     4.04783700    -0.00000200
H     -0.82289500     6.18433500    -0.00000200
H     -2.96087700     7.43811600    -0.00000000
H     -5.14093800     6.21671600     0.00000100
H     -5.18771200     3.73692700     0.00000200
H     -3.96144300     1.56925500     0.00000200
H     -2.80008100    -0.57622600     0.00000100
H     -0.69765400    -1.87962400    -0.00000000
