038
BNPAH_000027_PAH29   C22_H14_N01_B01  -925.86285451     0.00000000     4.72000000  4828.84573091     7.69525550   209.39856800 20203.89053813    30.56231475     0.04870415     1.32530739   127.87272491    -4.87040000    -0.17898390  -112.31409304  -469.92216527    -2.78600000    -0.10238361   -64.24668676  -268.80813741     2.08440000     0.07660029    48.06740628   201.11402786
C      7.42706000     2.10612200     0.00000000
B      7.59271700     0.58326400     0.00000100
C      6.28418700    -0.16723900     0.00000000
C      5.04608200     0.46862300     0.00000000
N      5.00498500     1.88556100    -0.00000000
C      6.17612700     2.64332700     0.00000000
C      3.81145700     2.57324700    -0.00000000
C      2.58756400     1.94981600    -0.00000000
C      1.35094800     2.68441900    -0.00000000
C      0.15349400     2.03357800    -0.00000000
C      0.06501900     0.59204400    -0.00000000
C      1.27437500    -0.15701600    -0.00000000
C      1.24083100    -1.59539100    -0.00000000
C      2.48588300    -2.30401800    -0.00000100
C      3.68636500    -1.64634300    -0.00000000
C      3.75597800    -0.21478600    -0.00000000
C      2.54599700     0.50765000    -0.00000000
C      0.00803400    -2.25284300    -0.00000000
C     -1.20758800    -1.54111800    -0.00000000
C     -2.46029600    -2.22875600     0.00000000
C     -3.65017300    -1.53844900     0.00000100
C     -3.64250700    -0.11826900     0.00000100
C     -2.45131400     0.57682200     0.00000000
C     -1.19449500    -0.09756300    -0.00000000
H      8.24746900     2.83142800     0.00000100
H      8.66915600     0.03512000     0.00000100
H      6.24782800    -1.25829600     0.00000100
H      5.97566900     3.71817200    -0.00000000
H      3.90606800     3.65939500    -0.00000000
H      1.38659700     3.77658800    -0.00000100
H     -0.76337700     2.62296300    -0.00000000
H      2.46279800    -3.39651700    -0.00000100
H      4.60838900    -2.22619800    -0.00000000
H     -0.01622900    -3.34586800    -0.00000000
H     -2.45202600    -3.32178400     0.00000000
H     -4.60081900    -2.07684700     0.00000100
H     -4.58888100     0.42765100     0.00000100
H     -2.48035400     1.66690200     0.00000000
