018
BNPAH_000249_PAH01   C06_H08_N02_B02  -392.52071892     0.00000000     0.00000000  2041.31313808     3.25303955    88.51971501  8540.85416973    30.01931085     0.04783882     1.30176051   125.60079660    -5.62100000    -0.20656794  -129.62334038  -542.34405613    -1.91020000    -0.07019856   -44.05025881  -184.30628287     3.71080000     0.13636939    85.57308156   358.03777326
N     -0.00000000     1.20256100     1.37098200
B     -0.00000000     2.48943400     0.75104500
C      0.00000000     2.46002800    -0.77607700
C      0.00000000     1.24503300    -1.41909800
N     -0.00000000    -1.20256100    -1.37098200
B     -0.00000000    -2.48943400    -0.75104500
C      0.00000000    -2.46002800     0.77607700
C      0.00000000    -1.24503300     1.41909800
C      0.00000000    -0.00650000     0.70352200
C      0.00000000     0.00650000    -0.70352200
H     -0.00000000     1.11916300     2.38471700
H     -0.00000000     3.46520400     1.45579700
H     -0.00000000     3.36324400    -1.39374700
H      0.00000000     1.18077900    -2.51509900
H     -0.00000000    -1.11916300    -2.38471700
H     -0.00000000    -3.46520400    -1.45579700
H     -0.00000000    -3.36324400     1.39374700
H      0.00000000    -1.18077900     2.51509900
