042
BNPAH_000075_PAH50   C24_H16_N01_B01 -1003.24127558     0.00100000     3.30661000  5295.66975572     8.43918694   229.64197351 22157.08225793    30.78877765     0.04906504     1.33512775   128.82024569    -5.26150000    -0.19335656  -121.33307337  -507.65757896    -2.15200000    -0.07908454   -49.62629932  -207.63643636     3.10950000     0.11427202    71.70677404   300.02114260
C     -2.93049900     0.23179900    -0.00003700
C     -3.03971400     1.60133300    -0.00013900
B     -1.76835900     2.43390600    -0.00016200
C     -0.44634700     1.63089300    -0.00006400
C      0.82425300     2.22905900    -0.00006800
C      2.03115400     1.50228800     0.00001800
C      1.93066400     0.07211700     0.00011900
C      3.14644500    -0.67471500     0.00022800
C      4.36833800    -0.06426100     0.00020700
C      4.55984200     1.36634700     0.00006800
C      5.86868800     2.03176100     0.00002600
C      5.84970200     3.46480300     0.00005400
C      7.04391800     4.25308000     0.00011100
C      8.27034300     3.67054200     0.00012700
C      8.38283400     2.24710900     0.00004100
C      9.69163000     1.69895200     0.00001100
C      9.91179200     0.33709400    -0.00012900
C      8.79101900    -0.50957200    -0.00026200
C      7.50343700     0.00616700    -0.00022400
C      7.21025500     1.40194800    -0.00004100
C      4.62874400     4.18945200     0.00002800
C      3.41993700     3.55546600    -0.00001200
C      3.34893400     2.13874700     0.00001600
C      0.67586200    -0.56005700     0.00013000
C     -0.49553800     0.19991500     0.00003800
N     -1.73309700    -0.42426500     0.00004700
H     -3.79428300    -0.44123400    -0.00001300
H     -4.05729100     2.00196400    -0.00019900
H     -1.75532200     3.64278800    -0.00024900
H      0.84001500     3.31915000    -0.00014700
H      3.09455800    -1.76671800     0.00033800
H      6.72005300    -0.73594100    -0.00037400
H      6.93723000     5.34047900     0.00014800
H      9.18402500     4.26969800     0.00017800
H     10.53334900     2.39650000     0.00008900
H     10.92504600    -0.07068100    -0.00015800
H      8.92231000    -1.59439900    -0.00040400
H      5.21574800    -0.73027900     0.00033100
H      4.67787300     5.28096100     0.00003600
H      2.50833900     4.15033700    -0.00004000
H      0.63124200    -1.65364300     0.00021100
H     -1.74256000    -1.43888000     0.00012000
