038
BNPAH_000252_PAH36   C22_H14_N01_B01  -925.86298720     0.00000000     4.84484000  4828.92899717     7.69538819   209.40217876 20204.23892416    30.56284175     0.04870499     1.32533025   127.87492988    -5.00030000    -0.18375764  -115.30965822  -482.45561001    -2.54130000    -0.09339105   -58.60377066  -245.19817645     2.45900000     0.09036658    56.70588756   237.25743356
C      6.73046800     1.11690300    -0.00000100
C      5.54261800     1.81596100     0.00000000
C      4.29437600     1.12544000     0.00000000
C      4.29160900    -0.31005700     0.00000000
C      5.53814900    -1.00235600    -0.00000100
C      6.72761600    -0.30529700    -0.00000100
C      3.04912500    -0.97808800     0.00000000
C      1.83152500    -0.29929200     0.00000100
C      0.54080500    -0.99073800     0.00000000
C      0.48052900    -2.39250200     0.00000100
C     -0.72906700    -3.08704000     0.00000100
C     -1.91309100    -2.36539800     0.00000000
C     -1.93060500    -0.95314400    -0.00000000
B     -3.27557400    -0.20730400    -0.00000100
C     -3.13890500     1.27318600    -0.00000100
C     -1.88996300     1.89263600    -0.00000100
C     -1.82063700     3.32220000    -0.00000000
C     -0.63601300     3.99850700     0.00000000
C      0.55938800     3.25244200     0.00000100
C      0.56089100     1.87058600     0.00000000
C      1.83239200     1.13104100     0.00000100
C      3.05733000     1.80236400     0.00000100
N     -0.66194400     1.16427500    -0.00000000
C     -0.68426200    -0.25624700    -0.00000000
H      7.68217600     1.65340400    -0.00000100
H      5.54187400     2.90918100     0.00000000
H      5.53525300    -2.09541300    -0.00000100
H      7.67775900    -0.84474000    -0.00000100
H      3.06724900    -2.06800900     0.00000000
H      1.40892000    -2.96294000     0.00000100
H     -0.73234800    -4.17939700     0.00000100
H     -2.87570600    -2.88227900    -0.00000000
H     -4.32113300    -0.81309800    -0.00000100
H     -3.97505900     1.97895000    -0.00000100
H     -2.77714000     3.84548800    -0.00000000
H     -0.60373800     5.08962200     0.00000100
H      1.50967900     3.77763200     0.00000100
H      3.09607200     2.89099900     0.00000100
