042
BNPAH_000315_PAH53   C24_H16_N01_B01 -1003.23746034     0.00000000     4.12074000  5293.27565867     8.43537170   229.53815564 22147.06535588    30.77485848     0.04904286     1.33452416   128.76200788    -4.75350000    -0.17468790  -109.61831498  -458.64302986    -2.98670000    -0.10975920   -68.87493875  -288.17274372     1.76680000     0.06492870    40.74337623   170.47028614
C      2.10114000    -1.34695300     0.00000300
C      0.92066500    -2.04398100     0.00000200
C     -0.34224500    -1.35989200     0.00000000
C     -1.55811900    -2.04349600    -0.00000100
C     -2.79975400    -1.36305500    -0.00000200
C     -4.03005000    -2.04721000    -0.00000200
C     -5.25715700    -1.36558800    -0.00000200
C     -6.50453200    -2.04028800    -0.00000200
C     -7.71988300    -1.36364000    -0.00000100
C     -8.97392500    -2.07084400    -0.00000000
C    -10.15904800    -1.39638600     0.00000100
C    -10.23609500     0.04622000     0.00000100
B    -11.56887400     0.81412400     0.00000200
C    -11.45339200     2.33042900     0.00000200
C    -10.20013400     2.88930200     0.00000100
N     -9.06096000     2.13402100    -0.00000000
C     -9.02486700     0.75873900    -0.00000000
C     -7.72466500     0.09326800    -0.00000100
C     -6.50877600     0.76716400    -0.00000200
C     -5.25876900     0.09000200    -0.00000200
C     -4.03444800     0.77598000    -0.00000300
C     -2.80111300     0.09550700    -0.00000200
C     -1.56076400     0.77813400    -0.00000200
C     -0.34333000     0.09640400    -0.00000000
C      0.91898400     0.78150700     0.00000100
C      2.10026100     0.08555000     0.00000200
H      3.05417100    -1.88145900     0.00000400
H      0.92028100    -3.13714400     0.00000200
H     -1.55685800    -3.13710100    -0.00000000
H     -4.02935600    -3.14061600    -0.00000100
H     -6.50916400    -3.13367400    -0.00000100
H     -8.94824900    -3.16340100     0.00000000
H    -11.10222800    -1.94865800     0.00000200
H    -12.62457200     0.22508600     0.00000300
H    -12.29460100     3.02975200     0.00000300
H    -10.00996100     3.96721800     0.00000100
H     -8.17522500     2.62681400    -0.00000100
H     -6.46450500     1.86084300    -0.00000200
H     -4.03450400     1.86987500    -0.00000300
H     -1.56047400     1.87185400    -0.00000200
H      0.91811300     1.87469100     0.00000000
H      3.05280000     0.62091800     0.00000300
