042
BNPAH_000643_PAH68   C24_H16_N01_B01 -1003.15346353     0.00000000    12.46660000  5240.56685467     8.35137487   227.25248558 21926.53171994    30.46841195     0.04855451     1.32123538   127.47983560    -4.18720000    -0.15387676   -96.55912664  -404.00338585    -3.32970000    -0.12236422   -76.78470672  -321.26721290     0.85750000     0.03151254    19.77441992    82.73617295
C      2.23766000     2.14784600     0.00001300
C      3.20903200     1.18372000    -0.00002400
C      2.94412300    -0.23452600    -0.00002000
C      4.06835500    -1.06982200    -0.00004800
C      3.94130700    -2.44670900    -0.00003700
C      2.66571000    -3.04453500    -0.00001000
C      2.65653200    -4.47837400    -0.00000000
C      1.50152900    -5.19587900     0.00002000
C      0.25123700    -4.50866300     0.00002100
C     -0.91577900    -5.28550300     0.00003000
C     -2.19680000    -4.71774900     0.00001800
C     -3.40285600    -5.43983400     0.00002400
C     -4.65118400    -4.81223600     0.00000500
C     -5.89326500    -5.50998600     0.00001100
C     -7.09932100    -4.85280900    -0.00000800
C     -7.09948000    -3.42910600    -0.00003500
C     -5.92039000    -2.74282200    -0.00004100
N     -4.68866300    -3.39732300    -0.00002200
C     -3.53374900    -2.67410500    -0.00002800
C     -2.26558000    -3.26998500    -0.00000900
C     -1.09270100    -2.49401800    -0.00001500
C      0.21223900    -3.03628400     0.00000700
C      1.45112800    -2.26981300     0.00000600
C      1.58058900    -0.78861700     0.00001700
C      0.55392000     0.17127200     0.00006800
B      0.77941100     1.67573100     0.00006800
H      2.56053200     3.19598200     0.00000800
H      4.27417400     1.45104000    -0.00005700
H      5.06087600    -0.61048700    -0.00007200
H      4.82391400    -3.09068000    -0.00005200
H      3.62363100    -4.98809200    -0.00000900
H      1.50643600    -6.28816100     0.00002800
H     -0.81361600    -6.37363800     0.00004300
H     -3.38789000    -6.53115800     0.00004300
H     -5.84281600    -6.59989600     0.00003100
H     -8.03948300    -5.40555800    -0.00000400
H     -8.03225800    -2.86390600    -0.00005100
H     -5.85727300    -1.65522200    -0.00006100
H     -3.65874300    -1.59095900    -0.00004900
H     -0.48094800    -0.14654400     0.00011800
H     -1.24018800    -1.42537400    -0.00004300
H     -0.16241100     2.44279100     0.00011300
