036
BNPAH_000172_PAH13   C20_H14_N01_B01  -849.61837202     4.90300000    11.29472000  4446.92114381     7.08661993   192.83675052 18605.91806570    30.45836400     0.04853849     1.32079966   127.43779498    -4.32450000    -0.15892245   -99.72533988  -417.25082205    -2.77680000    -0.10204552   -64.03452972  -267.92047235     1.54770000     0.05687693    35.69081016   149.33034970
C      0.08306400    -0.71272200     0.81260700
C      0.07836200     0.74048100     0.80582200
C     -0.00983900     2.95246900    -0.32753900
N     -0.03345600    -2.88528300    -0.31039500
C      0.17822700    -0.70850400     3.27674100
C     -0.17544900     0.63805300     3.25968800
C      0.27621000    -1.40602900     2.06298600
C     -0.24770200     1.37455400     2.06232600
C      0.14308300     3.74646900    -1.47018500
C     -0.30500300    -3.67647500    -1.41505200
C      0.38413600     1.54830700    -0.32961100
C     -0.25737700    -1.50186400    -0.33201000
C      0.42619500    -3.50891400     0.85054000
C     -0.51428900     3.49892600     0.90856800
C      0.53088500    -2.81429000     2.00971500
C     -0.57155200     2.77108700     2.06357000
B      0.80245800     3.20475400    -2.72538600
C     -0.88796600    -3.16706000    -2.53627900
C      1.11654500     1.03801400    -1.45505100
C     -0.94116500    -0.99634700    -1.47937000
C      1.33543200     1.76601900    -2.60343800
C     -1.26101300    -1.79384600    -2.54861700
H     -0.04014100    -4.72711800    -1.29904800
H     -0.20016600     4.78477800    -1.36962200
H      0.31904800    -1.24235300     4.21892500
H     -0.35789800     1.16255100     4.20171700
H      0.62860100    -4.57473100     0.75581600
H     -0.79681400     4.55563000     0.91346200
H      0.81800900    -3.34577100     2.91906600
H     -0.86697800     3.23590300     3.00806400
H      0.95458300     3.86882300    -3.72891000
H     -1.08605100    -3.82401400    -3.38346500
H      1.54376400     0.03311300    -1.34964400
H     -1.21029600     0.05772400    -1.47068600
H      1.94541900     1.28352200    -3.37847300
H     -1.80086800    -1.37585200    -3.39953300
