038
BNPAH_000174_PAH48   C22_H14_N01_B01  -925.83893540     0.00000000    10.70836000  4813.83625996     7.67133639   208.74769574 20141.09091167    30.46731810     0.04855276     1.32118795   127.47525893    -4.30250000    -0.15811396   -99.21800782  -415.12814473    -3.10900000    -0.11425364   -71.69524377  -299.97289993     1.19350000     0.04386032    27.52276405   115.15524480
C      1.89096600     1.61018100    -0.00001100
C      0.75198000     2.42766400    -0.00002700
C     -0.52306500     1.87569900    -0.00002400
C     -0.79516800     0.47239100    -0.00000300
C      0.40425400    -0.34584000     0.00000700
C      0.37170800    -1.78525300     0.00001700
C     -0.78924300    -2.49554600     0.00001500
B     -2.11058500    -1.72543900     0.00000700
C     -3.45721300    -2.50232000     0.00000200
C     -3.54565800    -3.90666000    -0.00000000
C     -4.76586900    -4.59302500    -0.00000700
C     -5.96608300    -3.88343700    -0.00001200
C     -5.91302000    -2.48568800    -0.00000900
N     -7.09240300    -1.75581300    -0.00001200
C     -7.12333900    -0.42946400    -0.00000700
C     -5.94713200     0.33871700     0.00000100
C     -6.07654000     1.74517200     0.00001100
C     -4.90873800     2.48586700     0.00002300
C     -3.65941900     1.85710700     0.00002200
C     -3.42189800     0.45029800     0.00000700
C     -2.11410800    -0.19550700     0.00000300
C     -4.66166300    -0.33165200     0.00000100
C     -4.67806800    -1.76146800    -0.00000300
C      1.69396900     0.24134600     0.00000500
H      2.89622900     2.03806000    -0.00001400
H      0.85382100     3.51654100    -0.00004300
H     -2.81717800     2.53054100     0.00003600
H      1.34937500    -2.28426600     0.00002400
H     -0.70970600    -3.58967400     0.00002100
H     -2.62204300    -4.48901400     0.00000300
H     -4.78392400    -5.68534200    -0.00000900
H     -6.93187300    -4.39646000    -0.00001700
H     -7.96921200    -2.27379300    -0.00001700
H     -8.10866800     0.04033100    -0.00000800
H     -7.06484700     2.20946900     0.00001100
H     -4.94588000     3.57779000     0.00003400
H     -1.31833400     2.60774200    -0.00004100
H      2.55380700    -0.43516500     0.00001400
