042
BNPAH_000042_PAH54   C24_H16_N01_B01 -1003.16324661     0.00000000    12.45429000  5246.70582982     8.36115795   227.51869674 21952.21719197    30.50410366     0.04861138     1.32278312   127.62916971    -4.30980000    -0.15838223   -99.38634982  -415.83248766    -3.33070000    -0.12240097   -76.80776726  -321.36369823     0.97910000     0.03598126    22.57858256    94.46878943
C      7.84049900     1.79107500     0.00004500
B      7.86855900     0.23821800     0.00002000
C      6.52003500    -0.44366800    -0.00000200
C      5.33961700     0.30798200     0.00000100
C      4.04202100    -0.29424700    -0.00001900
C      2.86033300     0.43151200    -0.00001500
C      2.90997200     1.86697900     0.00000700
C      4.18694700     2.47316100     0.00002700
C      5.38403100     1.76832500     0.00002600
C      6.64585400     2.46256000     0.00004700
C      1.69476400     2.61494200    -0.00000400
C      1.74740900     4.04172500    -0.00000400
C      0.62072800     4.82616200    -0.00003800
C     -0.64227900     4.19847200    -0.00008000
C     -0.72952400     2.82424500    -0.00007500
C      0.40770700     1.95254600    -0.00002600
C      0.33657800     0.49917000    -0.00001200
N      1.55557600    -0.19583500    -0.00002900
C      1.59280800    -1.58075700    -0.00006400
C      0.49561200    -2.36271600    -0.00007100
C     -0.79165800    -1.76743700    -0.00002600
C     -1.92593200    -2.61299500    -0.00001600
C     -3.20487400    -2.09468800     0.00005000
C     -3.34353800    -0.69802100     0.00011200
C     -2.23856200     0.14093800     0.00009800
C     -0.89226500    -0.33282600     0.00001600
H      8.75182100     2.40282100     0.00006300
H      8.91510000    -0.37441000     0.00001900
H      6.39531900    -1.53500800    -0.00002000
H      4.07645800    -1.38051700    -0.00003400
H      4.25901300     3.56049200     0.00004300
H      6.59927700     3.55948800     0.00006400
H      2.72015600     4.52803300     0.00001900
H      0.70491400     5.91507000    -0.00004000
H     -1.55922000     4.79121300    -0.00011900
H     -2.48085600     1.18897700     0.00016500
H      2.57918300    -2.01828300    -0.00008600
H      0.60944800    -3.44709700    -0.00010100
H     -1.75765200    -3.69231500    -0.00005500
H     -4.08000600    -2.74744200     0.00006100
H     -4.33789000    -0.24622100     0.00017600
H     -1.73319400     2.44042200    -0.00012400
