038
BNPAH_000265_PAH48   C22_H14_N01_B01  -925.89395616     0.00100000     1.47227000  4848.36231352     7.72635715   210.24488711 20285.54791977    30.68583743     0.04890099     1.33066384   128.38954381    -5.16140000    -0.18967795  -119.02471251  -497.99939714    -1.98710000    -0.07302458   -45.82361495  -191.72600497     3.17430000     0.11665337    73.20109755   306.27339217
C      1.87701400     1.54407100     0.00006700
C      0.74134500     2.37161100     0.00016400
C     -0.53989700     1.84137700     0.00014500
C     -0.82027100     0.43970800     0.00001900
C      0.36868100    -0.37816100    -0.00004500
C      0.25975100    -1.79316700    -0.00010800
C     -0.96071400    -2.39103400    -0.00009200
C     -2.18185100    -1.64287900    -0.00004100
C     -3.42544100    -2.41053300    -0.00001100
C     -3.42794400    -3.84323900     0.00000100
C     -4.57151700    -4.60932700     0.00004300
B     -5.89791700    -3.91230800     0.00007400
N     -5.85377400    -2.45307800     0.00005500
C     -7.07144000    -1.77860200     0.00007200
C     -7.15108400    -0.43277900     0.00004000
C     -5.95794500     0.36934400    -0.00000900
C     -6.04907500     1.76401200    -0.00006400
C     -4.87763200     2.50933900    -0.00013500
C     -3.63613300     1.88149100    -0.00012900
C     -3.45599000     0.47537200    -0.00004600
C     -2.14850900    -0.21498800    -0.00002200
C     -4.68175100    -0.29077300    -0.00001000
C     -4.65655900    -1.72481400     0.00001700
C      1.67318300     0.18108500    -0.00003100
H      2.88361300     1.96771000     0.00008200
H      0.85547200     3.45847000     0.00026300
H     -2.79219000     2.54753500    -0.00021000
H      1.17259500    -2.39381700    -0.00015100
H     -0.99342600    -3.47645900    -0.00012400
H     -2.46827300    -4.35935100    -0.00001900
H     -4.45842000    -5.69708000     0.00005100
H     -6.99078300    -4.41499600     0.00010800
H     -7.94309100    -2.43126700     0.00010500
H     -8.12668900     0.05516200     0.00004600
H     -7.03109000     2.24196200    -0.00006600
H     -4.91595800     3.60119500    -0.00019800
H     -1.32157900     2.58290700     0.00025200
H      2.52051800    -0.50960700    -0.00009100
