042
BNPAH_000335_PAH56   C24_H16_N01_B01 -1003.20014953     3.88300000     7.31507000  5269.86276704     8.39806088   228.52287657 22049.10581730    30.63873702     0.04882594     1.32862138   128.19247569    -4.58240000    -0.16840010  -105.67265521  -442.13438940    -2.56140000    -0.09412971   -59.06728768  -247.13753165     2.02100000     0.07427038    46.60536753   194.99685776
C      1.24512300     0.24794300     0.52431500
C      2.51355700     0.17847100    -0.01742700
C      3.14882700    -1.06886000    -0.25158400
C      4.51289800    -1.10990600    -0.67097000
C      5.18313500    -2.29947500    -0.74385700
C      4.51193200    -3.54108500    -0.51819300
C      5.24641900    -4.76821800    -0.47934100
C      4.59347200    -5.92995100    -0.16984900
C      3.17957900    -5.97742300    -0.06847000
N      2.44563100    -4.79604400    -0.28316300
C      1.11709400    -4.89636300    -0.53173300
C      0.36017700    -6.08391700    -0.41821500
C     -1.01792900    -6.08343400    -0.70258300
B     -1.81046600    -7.34564000    -0.54978300
C     -1.03465200    -8.60113800    -0.05729300
C     -1.69252000    -9.83840900     0.15109300
C     -1.02169500   -10.96615700     0.60678900
C      0.35799400   -10.89080500     0.87955600
C      1.03943700    -9.69830200     0.68644800
C      0.37051100    -8.54054600     0.21233500
C      1.08435700    -7.28636100    -0.00053800
C      2.46597600    -7.17566800     0.10442500
C      3.12051200    -3.53639100    -0.27558300
C      2.43625500    -2.29430000     0.00386600
C      1.15296100    -2.17969000     0.61652700
C      0.58128500    -0.94698000     0.87672800
H      0.77172500     1.21500200     0.70686300
H      3.06757700     1.09151900    -0.24982400
H      5.02767300    -0.16754000    -0.87254700
H      6.24878500    -2.32844200    -0.98204300
H      6.32600900    -4.74696000    -0.63538800
H      5.13139100    -6.87123000    -0.04628000
H      0.62937000    -3.98223600    -0.85802400
H     -1.44197100    -5.12287100    -1.02010000
H     -2.99920500    -7.42373500    -0.77221400
H     -2.76509700    -9.89211200    -0.05526600
H     -1.55719700   -11.90703600     0.75959300
H      0.89367700   -11.76928500     1.24854200
H      2.10554100    -9.66455600     0.92169700
H      3.07774600    -8.05887200     0.29056300
H      0.61402600    -3.07287800     0.93025300
H     -0.39459000    -0.90496900     1.36562500
