042
BNPAH_000355_PAH53   C24_H16_N01_B01 -1003.16704825     0.00000000    13.08134000  5249.09139662     8.36495960   227.62214471 21962.19840346    30.51797324     0.04863349     1.32338456   127.68720004    -4.32780000    -0.15904372   -99.80143969  -417.56922365    -3.47510000    -0.12770757   -80.13771040  -335.29618030     0.85270000     0.03133615    19.66372929    82.27304335
C      2.07565900    -1.44956900     0.00000200
C      0.87135600    -2.11264400     0.00000100
C     -0.35804700    -1.37549700    -0.00000000
C     -1.59497500    -2.00654200    -0.00000100
N     -2.78973000    -1.31246800    -0.00000100
C     -3.97946500    -1.97593600    -0.00000200
C     -5.22185500    -1.32187000    -0.00000200
C     -6.44604800    -1.99979500    -0.00000100
C     -7.67749900    -1.31375800    -0.00000100
C     -8.90646800    -2.00463700     0.00000000
C    -10.11156000    -1.30961800     0.00000100
C    -10.19229300     0.09525500     0.00000100
C    -11.47904500     0.72963900     0.00000100
C    -11.65046700     2.09656900     0.00000100
B    -10.41867800     3.00062100     0.00000000
C     -9.06684400     2.27607900    -0.00000000
C     -8.97619500     0.88267900    -0.00000000
C     -7.68994700     0.15784700    -0.00000100
C     -6.47169400     0.81856000    -0.00000100
C     -5.22690300     0.13550700    -0.00000200
C     -4.00066200     0.79305700    -0.00000200
C     -2.76416700     0.11158600    -0.00000100
C     -1.52292400     0.75923000    -0.00000100
C     -0.30274700     0.07092400    -0.00000000
C      0.96845800     0.71688900     0.00000100
C      2.12966200    -0.02331300     0.00000200
H      3.00779600    -2.01926600     0.00000300
H      0.83648500    -3.20460100     0.00000100
H     -1.69327300    -3.09174000    -0.00000100
H     -3.90478100    -3.06345600    -0.00000100
H     -6.45551200    -3.09299800    -0.00000100
H     -8.90019900    -3.09727500     0.00000000
H    -11.04828000    -1.87592800     0.00000200
H    -12.34265700     0.05101300     0.00000200
H    -12.68142500     2.47068900     0.00000200
H    -10.48540500     4.21082700     0.00000000
H     -8.12916500     2.84381100    -0.00000100
H     -6.44715100     1.90899900    -0.00000100
H     -3.96504400     1.88393000    -0.00000200
H     -1.53529300     1.85071200    -0.00000100
H      1.00281200     1.80899500     0.00000100
H      3.09998800     0.47751200     0.00000200
