042
BNPAH_000128_PAH39   C24_H16_N01_B01 -1003.22772984     0.00000000     6.41182000  5287.16967377     8.42564119   229.27337507 22121.51791505    30.73935857     0.04898629     1.33298474   128.61347626    -4.59680000    -0.16892929  -106.00472710  -443.52377819    -2.59050000    -0.09519912   -59.73834963  -249.94525483     2.00630000     0.07373017    46.26637748   193.57852336
C      2.80022600     0.21899800     0.00000300
C      2.66709800    -1.15958300     0.00000200
N      1.44226900    -1.71829500     0.00000100
C      0.25043700    -1.01596600    -0.00000000
C      0.34413200     0.42367800     0.00000000
B     -0.96164300     1.24854800    -0.00000000
C     -2.22140100     0.44586100    -0.00000100
C     -2.22694100    -0.96661700    -0.00000200
C     -3.47795300    -1.74294600    -0.00000200
C     -4.74042400    -1.08802100    -0.00000200
C     -5.92739700    -1.78207800    -0.00000200
C     -5.96216600    -3.20265200    -0.00000100
C     -4.72088200    -3.90118200    -0.00000200
C     -4.74697800    -5.33660800    -0.00000100
C     -5.92080400    -6.03802300    -0.00000000
C     -7.18669200    -5.37070400     0.00000000
C     -8.40274700    -6.10053100     0.00000200
C     -9.62366400    -5.44981200     0.00000300
C     -9.66079800    -4.03921000     0.00000200
C     -8.48489600    -3.30600900     0.00000100
C     -7.21625100    -3.94132800    -0.00000000
C     -3.47436300    -3.16561000    -0.00000200
C     -2.21043000    -3.84421700    -0.00000200
C     -1.03636600    -3.14605900    -0.00000200
C     -0.98701600    -1.71633600    -0.00000100
C      1.62618700     0.99059800     0.00000200
H      3.79330500     0.66854600     0.00000400
H      3.51205000    -1.84968700     0.00000300
H      1.38343600    -2.73365800     0.00000000
H     -0.90983400     2.45844500    -0.00000000
H     -3.19529000     0.94086300    -0.00000200
H     -4.77784800     0.00027800    -0.00000200
H     -6.85950500    -1.21657400    -0.00000100
H     -3.80964200    -5.89239400    -0.00000200
H     -5.90673500    -7.13117200    -0.00000000
H     -8.35753600    -7.19301100     0.00000200
H    -10.55446000    -6.02209200     0.00000400
H    -10.62216500    -3.51983800     0.00000300
H     -8.54697400    -2.21719700     0.00000000
H     -2.17172100    -4.93244700    -0.00000200
H     -0.11396400    -3.73745600    -0.00000200
H      1.70405700     2.08150000     0.00000200
