042
BNPAH_000162_PAH58   C24_H16_N01_B01 -1003.21484933     0.00000000    10.96214000  5279.08703602     8.41276069   228.92287873 22087.70015871    30.69236649     0.04891140     1.33094697   128.41686139    -4.26890000    -0.15687918   -98.44317341  -411.88623754    -3.16210000    -0.11620503   -72.91975887  -305.09627111     1.10680000     0.04067415    25.52341454   106.78996643
C      3.11096400     2.34633100     0.00000300
C      2.80935300     0.99346700    -0.00000100
C      1.46777500     0.53244300    -0.00000200
C      0.37127400     1.46876600     0.00000100
C      0.73981600     2.83882800     0.00000600
C      2.06010200     3.27911900     0.00000700
B     -1.08836500     0.87836300    -0.00000000
C     -2.46805500     1.61024300    -0.00000100
C     -2.63959100     3.01677700    -0.00000400
C     -3.86276100     3.67377000    -0.00000500
C     -5.06777100     2.94230500    -0.00000100
C     -4.94987500     1.51692100     0.00000100
N     -6.12293700     0.79661000     0.00000400
C     -7.36152900     1.30220700     0.00000500
C     -7.54934300     2.69406400     0.00000200
C     -8.85636100     3.26247600     0.00000200
C     -9.01774200     4.63060800    -0.00000000
C     -7.87740200     5.47313600    -0.00000400
C     -6.59952700     4.94202800    -0.00000400
C     -6.38640300     3.53956000    -0.00000100
C     -3.68880900     0.82499200     0.00000100
C     -3.63812400    -0.59363000     0.00000100
C     -2.44127800    -1.29528600    -0.00000100
C     -1.18174700    -0.65996600    -0.00000200
C      0.00373600    -1.46205300    -0.00000400
C      1.24854900    -0.89405400    -0.00000400
H      4.15132100     2.68245800     0.00000300
H      3.61552800     0.25345500    -0.00000300
H     -1.75283100     3.64710100    -0.00000700
H      2.27666000     4.35092300     0.00001000
H     -0.03118200     3.60887200     0.00001000
H     -3.88408700     4.76367100    -0.00000700
H     -6.01735100    -0.21665000     0.00000600
H     -8.18751100     0.59068600     0.00000800
H     -9.72322500     2.59698600     0.00000500
H    -10.01834500     5.06781900    -0.00000000
H     -8.01002500     6.55736200    -0.00000600
H     -5.74219300     5.61528400    -0.00000600
H     -4.55651600    -1.19341200     0.00000100
H     -2.49023000    -2.39205100    -0.00000200
H     -0.08578300    -2.55588400    -0.00000500
H      2.13608100    -1.53465600    -0.00000600
