036
BNPAH_000142_PAH18   C20_H14_N01_B01  -849.65496569     0.00000000    11.12105000  4469.88401755     7.12321360   193.83251496 18701.99472943    30.61564396     0.04878913     1.32761997   128.09585433    -3.95950000    -0.14550894   -91.30823985  -382.03367555    -2.86090000    -0.10513614   -65.97392181  -276.03488884     1.09860000     0.04037281    25.33431805   105.99878670
C     -2.43857100    -3.47070700     0.00000100
C     -2.30358900    -2.09257400     0.00000000
C     -1.01509100    -1.48625100    -0.00000000
C      0.16135800    -2.31596500    -0.00000000
C     -0.02687900    -3.72007600    -0.00000000
C     -1.29190000    -4.29660200     0.00000000
B      1.55324300    -1.65718000    -0.00000100
C      1.61470900    -0.13459400    -0.00000100
C      0.35618900     0.58565400    -0.00000000
C      0.35908700     2.02109100    -0.00000000
C      1.51892800     2.75032900    -0.00000000
C      2.79020100     2.09696100    -0.00000000
C      3.97476800     2.85241000     0.00000000
C      5.23784100     2.25078100     0.00000000
C      6.46277000     2.97321600     0.00000100
C      7.67201800     2.31728100     0.00000100
N      7.68525400     0.94625400     0.00000000
C      6.56409600     0.19380700    -0.00000000
C      5.29115100     0.79353300    -0.00000000
C      4.10773700     0.03964300    -0.00000100
C      2.82896100     0.63468000    -0.00000000
C     -0.88018600    -0.06988900    -0.00000000
H     -3.43461700    -3.92231200     0.00000100
H     -3.19183200    -1.45325400     0.00000100
H      0.85891700    -4.36288200    -0.00000000
H     -1.40556100    -5.38410700     0.00000100
H      2.54019700    -2.36519600    -0.00000100
H     -0.60446700     2.54021000    -0.00000000
H      1.49123800     3.84321400    -0.00000000
H      3.90393400     3.94372800     0.00000000
H      6.45134500     4.06445300     0.00000100
H      8.64169400     2.81221800     0.00000100
H      8.58358700     0.47110300     0.00000000
H      6.70099800    -0.88788700    -0.00000100
H      4.17139900    -1.04937500    -0.00000100
H     -1.79045900     0.53832800    -0.00000000
