038
BNPAH_000497_PAH47   C22_H14_N01_B01  -925.86015676     0.00100000     4.10657000  4827.15286916     7.69255775   209.32515856 20196.80760457    30.55160044     0.04868707     1.32484278   127.82789624    -4.68350000    -0.17211545  -108.00407661  -451.88905656    -2.71490000    -0.09977074   -62.60708180  -261.94803024     1.96860000     0.07234472    45.39699482   189.94102631
C      2.05115800     1.26997300    -0.00009400
C      0.92711800     2.10988400    -0.00026000
C     -0.35808400     1.58429300    -0.00023700
C     -0.63814500     0.18720200    -0.00003600
C      0.53679200    -0.65151600     0.00007200
C      0.42378500    -2.07916700     0.00016400
C     -0.79698300    -2.66923000     0.00012600
C     -2.00330700    -1.88917800     0.00004800
C     -3.20958800    -2.61171000     0.00000200
C     -4.46217700    -2.00461700    -0.00005000
C     -4.50311900    -0.56710200    -0.00000100
C     -3.27263500     0.20178700     0.00006000
C     -3.47654400     1.60841900     0.00020600
N     -4.69100800     2.15301500     0.00021200
C     -5.89139800     1.49637800     0.00009800
C     -5.78570700     0.07130800     0.00000100
C     -6.99275300    -0.69314300    -0.00008000
C     -6.89555300    -2.11738600    -0.00014600
C     -5.68289300    -2.75400500    -0.00012400
C     -8.25793800    -0.03506500    -0.00008300
C     -8.42799500     1.34393800    -0.00000100
B     -7.21987300     2.25063200     0.00010600
C     -1.97048300    -0.44939300     0.00002300
C      1.83946400    -0.09580700     0.00005800
H      3.06174200     1.68383000    -0.00011100
H      1.05216400     3.19540100    -0.00041900
H     -2.67895200     2.33433900     0.00035400
H      1.33972000    -2.67490600     0.00023300
H     -0.89490400    -3.75727200     0.00016300
H     -3.15217000    -3.70338300     0.00000100
H     -1.14482200     2.32472900    -0.00042400
H     -4.74974700     3.17137500     0.00031700
H     -7.82086400    -2.70031100    -0.00020400
H     -5.62096800    -3.84462200    -0.00016200
H     -9.13491000    -0.69510400    -0.00015200
H     -9.46016100     1.71160600    -0.00001100
H     -7.22955800     3.46437200     0.00019500
H      2.68690800    -0.78629600     0.00015700
