038
BNPAH_000550_PAH66   C22_H14_N01_B01  -925.82395494     0.00000000     7.53448000  4804.43587909     7.65635593   208.34005664 20101.75971811    30.40782202     0.04845795     1.31860795   127.22632733    -4.44230000    -0.16325152  -102.44187243  -428.61679426    -2.75200000    -0.10113414   -63.46262813  -265.52763609     1.69030000     0.06211738    38.97924430   163.08915817
C      4.21531200    -2.90848100    -0.00000900
C      3.07774100    -3.73349700    -0.00002300
C      1.79907500    -3.19231200    -0.00002200
C      1.51644400    -1.79106600    -0.00000400
C      2.71734100    -0.95757400     0.00000500
C      4.01370600    -1.54308500     0.00000400
C      2.68149100     0.46841300     0.00001100
C      1.49969700     1.18815000     0.00000800
C      1.45478000     2.61858800     0.00001000
C      0.24246100     3.27766500     0.00000500
C     -1.00581700     2.58413400    -0.00000100
C     -1.10475300     1.19651900    -0.00000200
C     -2.37498800     0.47990100    -0.00000700
C     -3.61658200     1.14420500    -0.00001500
C     -4.84350600     0.47245800    -0.00001600
C     -4.86264300    -0.90963000    -0.00000800
C     -3.63882200    -1.62725700     0.00000000
C     -2.35892700    -0.95832200    -0.00000100
C     -1.10960100    -1.75499800     0.00000600
C     -1.32189100    -3.15233300     0.00002300
N     -2.55425300    -3.71619400     0.00002500
C     -3.70095800    -3.03602500     0.00001200
C      0.20370400    -1.13703200     0.00000100
B      0.19123800     0.38569500     0.00000200
H      5.22142600    -3.33327900    -0.00001000
H      3.18930400    -4.82141200    -0.00003700
H     -0.52622000    -3.87889700     0.00003800
H      4.87060300    -0.86334100     0.00001200
H      3.65282800     0.98205900     0.00001700
H      2.38553600     3.19918900     0.00001500
H      0.22199700     4.37107200     0.00000600
H     -1.90213100     3.21625100    -0.00000500
H     -3.62254800     2.23504700    -0.00002000
H     -5.77699100     1.04012900    -0.00002300
H     -5.80308200    -1.46547800    -0.00000800
H      1.00734800    -3.93022600    -0.00003900
H     -2.59552200    -4.73310900     0.00003600
H     -4.63215000    -3.60048600     0.00001500
