036
BNPAH_000114_PAH13   C20_H14_N01_B01  -849.68718350     4.22900000     4.08961000  4490.10100438     7.15543142   194.70920648 18786.58260233    30.75411647     0.04900980     1.33362470   128.67522331    -4.96330000    -0.18239791  -114.45641795  -478.88565270    -2.14610000    -0.07886772   -49.49024209  -207.06717290     2.81720000     0.10353019    64.96617586   271.81847980
C     -0.07741200    -0.79767300     0.82475100
C     -0.08710900     0.64600000     0.75992000
C      0.05637300     3.04849500    -0.30647200
C     -0.01634200    -3.06788500    -0.23182600
C      0.07016200    -0.67746800     3.28452500
C     -0.19614000     0.66696300     3.24176700
C      0.13479500    -1.43876600     2.08360700
C     -0.24452200     1.35562400     1.99240800
N      0.34121500     3.89142800    -1.34767900
C     -0.21640500    -3.90687000    -1.35859000
B      0.23789200     1.53394100    -0.48880700
C     -0.31328400    -1.66797500    -0.32520700
C      0.40049900    -3.62064700     1.02245500
C     -0.32141300     3.61100400     0.94431900
C      0.40808800    -2.84467500     2.14651400
C     -0.42233500     2.78754700     2.03562600
C      0.84969700     3.50217600    -2.53586800
C     -0.77061700    -3.41539000    -2.52709500
C      0.89149600     1.17198500    -1.81501100
C     -0.94743900    -1.21845100    -1.51232200
C      1.15347600     2.15924800    -2.76802900
C     -1.17083100    -2.06407900    -2.58746700
H      0.04608500    -4.96496200    -1.27314500
H      0.19946900     4.89171300    -1.20537600
H      0.20055300    -1.19227100     4.24025400
H     -0.31357300     1.23909500     4.16636300
H      0.64128400    -4.68568500     1.07454100
H     -0.47014600     4.69227900     1.05851700
H      0.63599200    -3.28178300     3.12258900
H     -0.63691900     3.22779800     3.01382500
H      1.02566900     4.29097100    -3.26772800
H     -0.93301100    -4.07625700    -3.38217300
H      1.19554300     0.15537600    -2.08368100
H     -1.28873300    -0.18519300    -1.56570900
H      1.61041300     1.91658100    -3.73227600
H     -1.67247100    -1.68219300    -3.48021500
