018
BNPAH_001343_PAH01   C04_H08_N03_B03  -395.94024640     0.00000000     1.87543000  1961.36248403     3.12563007    85.05272654  8206.34063318    28.84356594     0.04596515     1.25077539   120.68147989    -4.62060000    -0.16980392  -106.55356814  -445.82012912    -2.08840000    -0.07674729   -48.15964847  -201.49996919     2.53220000     0.09305663    58.39391968   244.32015993
N     -0.00000000     1.27011100     1.49120900
B     -0.00000000     2.48817300     0.76415000
N      0.00000000     2.46630500    -0.69690500
C      0.00000000     1.36811200    -1.50362300
C     -0.00000000    -1.36922700    -1.51779000
C     -0.00000000    -2.50774400    -0.68436700
C      0.00000000    -2.44424400     0.71027600
N      0.00000000    -1.28920200     1.43145600
B     -0.00000000     0.00979100     0.77515300
B     -0.00000000    -0.00456900    -0.87094700
H     -0.00000000     1.33295500     2.50855700
H     -0.00000000     3.56644800     1.30174400
H      0.00000000     3.37291800    -1.16061300
H      0.00000000     1.61312700    -2.57603400
H     -0.00000000    -1.56857000    -2.59916900
H     -0.00000000    -3.51779300    -1.10801700
H      0.00000000    -3.37084200     1.29179100
H      0.00000000    -1.41574900     2.44312900
