042
BNPAH_000231_PAH60   C24_H16_N01_B01 -1003.20521414     0.00000000    10.37179000  5273.04086160     8.40312550   228.66069179 22062.40296493    30.65721431     0.04885538     1.32942263   128.26978467    -4.28870000    -0.15760682   -98.89977226  -413.79664713    -3.06840000    -0.11276162   -70.75898552  -296.05559542     1.22030000     0.04484520    28.14078674   117.74105172
C     -2.74128800    -0.04247700     0.00000600
C     -2.72867400     1.36715300    -0.00001600
C     -1.52863900     2.06215100    -0.00002100
C     -0.28227700     1.38699700    -0.00000500
C     -0.32902200    -0.03030500     0.00001700
N      0.87788200    -0.70487600     0.00003600
C      2.07456200    -0.09932000     0.00003100
C      2.23364400     1.29047600     0.00000400
C      3.56975900     1.88034900    -0.00000300
B      4.93246100     1.10201300    -0.00001000
C      5.20600000    -0.41628200    -0.00003100
C      6.50386900    -0.90042700    -0.00003100
C      7.62524100    -0.03860600    -0.00001500
C      7.47303300     1.33908400    -0.00000100
C      6.20313000     1.97261700    -0.00000000
C      6.12860300     3.42833500     0.00000700
C      7.29629000     4.24253200     0.00001700
C      7.24658800     5.62463900     0.00002000
C      5.99952200     6.27310400     0.00001400
C      4.84292000     5.51206200     0.00000500
C      4.85875900     4.09111100     0.00000100
C      3.60377800     3.32287400    -0.00000600
C      2.38423600     4.03793100    -0.00001600
C      1.12575800     3.45228300    -0.00002000
C      1.00760700     2.06148600    -0.00000800
C     -1.54465100    -0.74130600     0.00002300
H     -3.68908500    -0.58438900     0.00001000
H     -3.67189700     1.91720400    -0.00002900
H     -1.54618900     3.15203700    -0.00003800
H      0.85427200    -1.72150700     0.00005600
H      4.47001100    -1.23070100    -0.00005000
H      2.93423600    -0.75957100     0.00005100
H      6.68884500    -1.98179100    -0.00004500
H      8.63151200    -0.46786400    -0.00001600
H      8.39211500     1.93165100     0.00000700
H      8.27488900     3.76380900     0.00002100
H      8.17278600     6.20540600     0.00002800
H      5.93616800     7.36384500     0.00001700
H      3.89723600     6.05304700     0.00000100
H      2.40607600     5.12612800    -0.00002200
H      0.24423600     4.09355600    -0.00002800
H     -1.53238900    -1.83446000     0.00004100
