038
BNPAH_000270_PAH36   C22_H14_N01_B01  -925.88068836     0.00100000     3.49016000  4840.03664625     7.71308936   209.88385201 20250.71332791    30.63314333     0.04881702     1.32837881   128.16907169    -4.93830000    -0.18147918  -113.87990425  -476.47351937    -2.34730000    -0.08626168   -54.13002435  -226.48002188     2.59100000     0.09521749    59.74987990   249.99349750
C      6.78939800     1.05258000    -0.00000000
C      5.62025400     1.78395000    -0.00000000
C      4.35305700     1.13029700     0.00000000
C      4.30907600    -0.30469600    -0.00000000
C      5.53586700    -1.02986800    -0.00000000
C      6.74652300    -0.36824700    -0.00000000
C      3.04846300    -0.94620900    -0.00000000
C      1.83556100    -0.26093000    -0.00000000
C      0.55231100    -1.01751400    -0.00000000
C      0.48204400    -2.42314700     0.00000000
C     -0.75796200    -3.08281000     0.00000000
C     -1.95985000    -2.37644500     0.00000000
C     -1.93609800    -0.96408800    -0.00000000
C     -3.15023900    -0.17375600    -0.00000000
C     -3.18651600     1.20742700    -0.00000000
C     -1.96705400     1.94697800    -0.00000000
N     -1.90106000     3.31250200    -0.00000000
C     -0.72496600     4.00182500     0.00000000
C      0.52189300     3.38021900     0.00000000
C      0.64006300     1.97234200     0.00000000
C      1.88426400     1.20105500     0.00000000
C      3.12940000     1.83259400     0.00000000
B     -0.65070800     1.20524600    -0.00000000
C     -0.67319100    -0.30295800    -0.00000000
H      7.75565500     1.56297100    -0.00000000
H      5.64943800     2.87705100     0.00000000
H      5.50219700    -2.12279700    -0.00000000
H      7.68051200    -0.93551600    -0.00000000
H      3.05136700    -2.03758400    -0.00000000
H      1.38593500    -3.03503300     0.00000000
H     -0.77477100    -4.17577900     0.00000000
H     -2.91310400    -2.91305600     0.00000000
H     -4.09978700    -0.71768100    -0.00000000
H     -4.15956600     1.71423100    -0.00000000
H     -2.76112400     3.86038500    -0.00000000
H     -0.82344100     5.08785300     0.00000000
H      1.38641000     4.05150000     0.00000000
H      3.17036800     2.92458600     0.00000000
