036
BNPAH_000431_PAH23   C20_H14_N01_B01  -849.66418545     0.00000000     8.03081000  4475.66951013     7.13243337   194.08339766 18726.20123038    30.65527062     0.04885228     1.32933834   128.26165227    -4.52660000    -0.16634948  -104.38587663  -436.75050783    -2.69470000    -0.09902840   -62.14125873  -259.99902652     1.83190000     0.06732108    42.24461790   176.75148131
C      2.65096000    -0.16519000     0.00000100
C      2.61292700    -1.57293900     0.00000500
C      1.38716000    -2.23250900     0.00000400
C      0.15874200    -1.53075400     0.00000100
C      0.21583000    -0.10484000    -0.00000300
C     -1.01672200     0.63780800    -0.00000700
C     -2.26953500     0.07712500    -0.00000700
C     -2.52044500    -1.34735700    -0.00000300
C     -3.81211800    -1.98061300    -0.00000200
C     -3.80546700    -3.43368000    -0.00000200
N     -4.98909500    -4.12699100    -0.00000300
C     -6.20869300    -3.60446000    -0.00000400
C     -6.34162600    -2.20309300    -0.00000200
C     -7.65419800    -1.65677000    -0.00000100
C     -7.85329700    -0.29306300     0.00000400
C     -6.72117800     0.54470800     0.00000700
C     -5.43441700     0.02498400     0.00000600
C     -5.15957900    -1.37016800     0.00000000
C     -2.65035300    -4.26625700    -0.00000000
C     -1.38858200    -3.73979400     0.00000100
B     -1.23547300    -2.21675500     0.00000000
C      1.46639900     0.55982700    -0.00000200
H      3.61252400     0.35549400     0.00000200
H      3.54579000    -2.14335600     0.00000800
H      1.37822200    -3.32648300     0.00000700
H     -0.94335800     1.73022500    -0.00001100
H     -4.62439900     0.73918100     0.00001000
H     -4.89507200    -5.14213200    -0.00000400
H     -7.05680500    -4.28856500    -0.00000500
H     -8.50256000    -2.34624200    -0.00000200
H     -8.86091400     0.12737800     0.00000500
H     -6.84876700     1.62979600     0.00001100
H     -3.07095900     0.80885100    -0.00001200
H     -2.83201800    -5.35120700    -0.00000000
H     -0.55085900    -4.44601700     0.00000300
H      1.49101400     1.65386700    -0.00000500
