036
BNPAH_000312_PAH23   C20_H14_N01_B01  -849.64011551     0.00400000    11.26499000  4460.56539084     7.10836342   193.42842106 18663.00559527    30.55181775     0.04868742     1.32485220   127.82880547    -4.56770000    -0.16785988  -105.33366515  -440.71605501    -2.93180000    -0.10774166   -67.60891466  -282.87569894     1.63590000     0.06011822    37.72475049   157.84035606
C      2.61209700    -0.26306500    -0.00004800
C      2.50409700    -1.66957900    -0.00049200
C      1.26044500    -2.28248000    -0.00051300
C      0.06359000    -1.52161000    -0.00010900
C      0.18320200    -0.10276300     0.00034200
C     -1.01634500     0.66616000     0.00083700
C     -2.25943500     0.08816400     0.00077700
C     -2.47739100    -1.32872000     0.00018700
C     -3.80876200    -1.97118100     0.00002300
C     -3.77173700    -3.41730200     0.00010500
C     -4.92328500    -4.24215300     0.00035700
C     -6.15411100    -3.65675500     0.00048900
C     -6.32035300    -2.23744600     0.00021800
C     -7.63400500    -1.74351700     0.00022300
B     -7.93950700    -0.26400000    -0.00028000
C     -6.67986800     0.59705800    -0.00086300
C     -5.41527500     0.03974600    -0.00079800
C     -5.13030300    -1.36942400    -0.00015400
N     -2.57934500    -4.07974700    -0.00006400
C     -1.36858900    -3.51506200    -0.00025000
C     -1.26871200    -2.12239900    -0.00009400
C      1.46328600     0.50680700     0.00036900
H      3.59639400     0.21035000    -0.00002900
H      3.40705100    -2.28450200    -0.00082100
H      1.22803200    -3.37278700    -0.00086700
H     -0.93904400     1.75628400     0.00129800
H     -4.59665100     0.74720300    -0.00141200
H     -4.79990400    -5.32928100     0.00046700
H     -7.05524800    -4.27506800     0.00071700
H     -8.40968000    -2.52092300     0.00056500
H     -9.06264100     0.19053300    -0.00032300
H     -6.70205600     1.69471200    -0.00140200
H     -3.09898500     0.76474500     0.00128700
H     -2.63754600    -5.09594100    -0.00006500
H     -0.52060300    -4.19398800    -0.00040700
H      1.52426600     1.59794200     0.00073200
