036
BNPAH_000446_PAH20   C20_H14_N01_B01  -849.69969104     0.00600000     2.85559000  4497.94960648     7.16793896   195.04955408 18819.42115351    30.80787402     0.04909547     1.33595585   128.90014490    -5.15710000    -0.18951993  -118.92555215  -497.58451021    -2.12820000    -0.07820991   -49.07745828  -205.34008544     3.02890000     0.11131002    69.84809387   292.24442477
C      2.15262900     0.56403800    -0.00054400
C      2.20653000    -0.81922300    -0.00145300
C      1.06008800    -1.63870900    -0.00130800
C     -0.26089500    -1.16952000    -0.00020500
N     -0.36258800     0.24080700     0.00043900
C     -1.59700600     0.85087600     0.00096300
C     -2.74730900     0.14979200     0.00078400
C     -2.74311800    -1.28339000     0.00029300
C     -1.51126300    -1.98136200     0.00012600
C     -1.57849700    -3.46497500     0.00031600
C     -0.45699600    -4.34177200     0.00111200
C     -0.55149400    -5.72496600     0.00118300
C     -1.80466500    -6.34539600     0.00049900
C     -2.92763400    -5.54000500    -0.00007500
C     -2.85950400    -4.12539600    -0.00008000
C     -4.10439100    -3.36780500    -0.00032500
C     -5.37773800    -3.99208800    -0.00070100
C     -6.55059700    -3.25685500    -0.00075200
C     -6.49033300    -1.85296000    -0.00040800
C     -5.25904100    -1.22109600    -0.00003300
C     -4.04059100    -1.95213600     0.00000800
B      0.78938200     1.16392600     0.00042200
H      3.08438500     1.13591600    -0.00070400
H      3.16977200    -1.34333300    -0.00236300
H      0.54914000    -3.96147400     0.00188100
H     -1.56610400     1.93906700     0.00138500
H     -3.67690800     0.70958900     0.00107600
H      1.26650600    -2.69269900    -0.00230900
H      0.36564400    -6.31851200     0.00181000
H     -1.90006400    -7.43331400     0.00053000
H     -3.90364400    -6.02150700    -0.00045400
H     -5.45469300    -5.07813300    -0.00094400
H     -7.51529600    -3.76936600    -0.00104500
H     -7.40704700    -1.25907800    -0.00044100
H     -5.24990000    -0.13314400     0.00020300
H      0.50708200     2.33419400     0.00111600
