038
BNPAH_000508_PAH65   C22_H14_N01_B01  -925.82757611     0.00000000    14.88712000  4806.70820211     7.65997710   208.43859390 20111.26711763    30.42220381     0.04848087     1.31923161   127.28650074    -4.30010000    -0.15802576   -99.16266251  -414.89657993    -3.01440000    -0.11077716   -69.51371593  -290.84538744     1.28570000     0.04724860    29.64894658   124.05119249
C     -2.83124400     2.70772700    -0.00000000
N     -3.87624300     1.84572700    -0.00000100
C     -1.51399900     2.21832500     0.00000000
C     -3.76301100     0.50994800    -0.00000000
C     -2.47817100    -0.08102600    -0.00000000
C     -1.32522800     0.79787300     0.00000000
C     -2.31333200    -1.47891200    -0.00000000
C     -0.00490200     0.23805800     0.00000000
C     -1.02059200    -2.00511300     0.00000000
C      0.09905100    -1.17864300     0.00000000
C     -0.36654700     3.10914600     0.00000000
C      0.95086800     2.54537500     0.00000000
C      1.13702200     1.12460200     0.00000000
C     -0.52607600     4.51055900     0.00000000
C      0.58130300     5.34682100     0.00000000
C      1.86925600     4.80201100     0.00000000
C      2.09644700     3.41868600     0.00000000
C      3.46861900     2.87614300     0.00000000
C      2.45951500     0.62892600     0.00000000
C      3.59850900     1.42660100     0.00000000
C      4.61777800     3.65905000    -0.00000000
C      4.89557400     0.79460100    -0.00000000
B      6.01404400     3.03826800    -0.00000000
C      6.06945800     1.50155400    -0.00000000
H      4.88871700    -0.30381200     0.00000000
H      4.49127800     4.74725000    -0.00000000
H      7.00322900     0.92612500    -0.00000000
H      7.01346000     3.72437200    -0.00000100
H     -3.09093800     3.76229900    -0.00000000
H     -4.81278000     2.24441000    -0.00000100
H     -4.68559800    -0.06899800    -0.00000100
H      2.61891600    -0.45159600     0.00000000
H     -1.52151300     4.95766100     0.00000000
H      0.44895400     6.43101900     0.00000000
H      2.72439600     5.47828000     0.00000000
H     -3.18978900    -2.12984000    -0.00000000
H     -0.88073300    -3.08881300     0.00000000
H      1.08467300    -1.64263200     0.00000100
