038
BNPAH_000043_PAH76   C22_H14_N01_B01  -925.82538355     0.00000000    11.04263000  4805.33234519     7.65778453   208.37893109 20105.51053227    30.41349586     0.04846699     1.31885399   127.25006668    -4.38910000    -0.16129645  -101.21505128  -423.48377455    -3.06980000    -0.11281307   -70.79127029  -296.19067488     1.31930000     0.04848338    30.42378099   127.29309967
C      9.27970300     2.01203700     0.00000000
B      9.38595400     0.46276400     0.00000000
C      8.07179200    -0.28497200     0.00000000
C      6.85092000     0.39987600    -0.00000000
C      5.59298600    -0.27543600    -0.00000000
C      4.36864600     0.38382900    -0.00000000
C      4.36695100     1.83917500    -0.00000000
C      5.60041300     2.53077100    -0.00000000
C      6.82354900     1.87350300    -0.00000000
C      8.05356500     2.62370900     0.00000000
C      3.13781700     2.49307800    -0.00000000
C      1.91321100     1.82510000    -0.00000000
C      0.68052200     2.53758100    -0.00000000
C     -0.52751800     1.91131400     0.00000000
C     -0.57164800     0.47742700     0.00000000
C      0.65262600    -0.26121200    -0.00000000
C      0.60856400    -1.68571600    -0.00000000
C      1.84182000    -2.40050900    -0.00000000
C      3.02517200    -1.72126000    -0.00000000
C      3.09388800    -0.30202000    -0.00000000
N      1.89571900     0.40798500    -0.00000000
C     -0.64081400    -2.34815800     0.00000000
C     -1.82561100    -1.62446100     0.00000000
C     -1.78965800    -0.22847800     0.00000000
H     10.15920500     2.66857000     0.00000100
H     10.46092900    -0.09661100     0.00000100
H      8.00313500    -1.38079000     0.00000000
H      5.63934900    -1.36555400    -0.00000000
H      5.58143700     3.62479200    -0.00000000
H      7.95453900     3.71683900     0.00000000
H      3.10320500     3.58436900    -0.00000000
H      0.75367800     3.62620800    -0.00000000
H     -1.46193800     2.47422600     0.00000000
H      1.82569600    -3.49199900    -0.00000000
H      3.96541600    -2.26696600    -0.00000100
H     -0.64918200    -3.43985000     0.00000000
H     -2.78605800    -2.14432600     0.00000100
H     -2.71771700     0.34704800     0.00000100
