042
BNPAH_000158_PAH32   C24_H16_N01_B01 -1003.19142827     0.01600000     7.49288000  5264.39009363     8.38933962   228.28555899 22026.20815175    30.60691915     0.04877523     1.32724162   128.05934972    -5.22150000    -0.19188659  -120.41065145  -503.79816565    -2.29400000    -0.08430295   -52.90089714  -221.33735363     2.92750000     0.10758364    67.50975431   282.46081201
C      1.34958400    -2.38145600    -0.00219000
C      0.04466900    -2.82192400    -0.00029000
C     -1.04782700    -1.91512900     0.00028800
C     -2.35150800    -2.47330300     0.00168500
C     -3.44424500    -1.66595400     0.00185600
C     -3.33989500    -0.23561000     0.00103500
C     -4.57295900     0.53849300     0.00091000
N     -5.73714800    -0.21014000     0.00145800
C     -6.96921800     0.31671600     0.00116500
C     -7.16778500     1.67468300     0.00001300
C     -8.54431100     2.10529200    -0.00047200
C     -8.92167700     3.41807000    -0.00197000
B     -7.80198300     4.45986600    -0.00329200
C     -6.36637600     3.94201500    -0.00263800
C     -6.01302300     2.59044600    -0.00083700
C     -4.65488700     1.94111300     0.00013000
C     -3.34652000     2.60859500     0.00077100
C     -2.09393700     1.86911900     0.00093100
C     -0.90788000     2.65067500     0.00227700
C     -0.87110300     4.03298000     0.00313800
C     -2.07480500     4.73764100     0.00282200
C     -3.25835500     4.02477100     0.00174000
C     -2.06563700     0.39556800     0.00028700
C     -0.86778100    -0.48263400    -0.00073000
C      0.50926900    -0.09476100    -0.00307600
C      1.56522600    -0.99313400    -0.00371700
H      2.18635200    -3.08305800    -0.00270200
H     -0.18359600    -3.89083700     0.00069200
H     -2.46353200    -3.55977600     0.00236600
H     -4.40413500    -2.18194800     0.00268900
H     -5.65528400    -1.21646100     0.00212400
H     -7.79844100    -0.39337800     0.00172300
H     -9.28515100     1.29420600     0.00037200
H     -9.99415800     3.64334200    -0.00226900
H     -8.01695600     5.65201000    -0.00485200
H     -4.16595600     4.59945600     0.00192900
H      0.82021300     0.93676600    -0.00479200
H      0.09229000     4.54774800     0.00419800
H     -2.09868300     5.82952400     0.00360000
H     -5.61261200     4.71748400    -0.00388200
H      0.05192300     2.17020300     0.00303500
H      2.58362800    -0.59729900    -0.00552500
