038
BNPAH_000240_PAH34   C22_H14_N01_B01  -925.86088986     0.00100000     3.89039000  4827.61289853     7.69329086   209.34510732 20198.73236745    30.55451202     0.04869171     1.32496903   127.84007829    -4.09530000    -0.15049950   -94.43986227  -395.13638375    -2.87390000    -0.10561388   -66.27370893  -277.28919817     1.22140000     0.04488562    28.16615334   117.84718558
C     -6.52775000     0.14470300     0.00515500
C     -6.52527700    -1.21747700    -0.01128300
C     -5.27511500    -1.93413200    -0.02541000
C     -5.22580400    -3.33839700    -0.04257200
C     -3.98992000    -3.97989600    -0.05573900
C     -2.80026800    -3.24413300    -0.05206300
C     -2.78291100    -1.83761800    -0.03514600
C     -4.05407300    -1.17695600    -0.02162800
C     -4.09900500     0.25287100    -0.00421200
N     -5.34428600     0.83108900     0.00821000
B     -2.84511800     1.12325000     0.00080700
C     -1.53529000     0.40220400    -0.01356000
C     -0.23987900     1.09307300    -0.01087400
C     -0.14252600     2.49714100     0.00559100
C      1.09582000     3.15714900     0.00815200
C      2.28600200     2.44458700    -0.00557000
C      2.25658200     1.02706400    -0.02247700
C      3.44802400     0.24601000    -0.03700800
C      3.39623300    -1.13934100    -0.05346900
C      2.15692000    -1.80108000    -0.05608300
C      0.95552800    -1.07279100    -0.04211700
C     -0.31376200    -1.72973700    -0.04453700
C     -1.52190600    -1.05333700    -0.03115800
C      0.98834100     0.35719700    -0.02504800
H     -7.43678300     0.74713300     0.01641900
H     -7.46874700    -1.76457000    -0.01372700
H     -6.15554800    -3.91216800    -0.04541500
H     -3.94152100    -5.07132400    -0.06913000
H     -1.86356300    -3.80098400    -0.06288800
H     -5.36334300     1.84788200     0.02055500
H      2.11840300    -2.89366100    -0.06907300
H      3.24957100     2.96035300    -0.00355100
H     -1.06024800     3.08547200     0.01664200
H      1.11659300     4.25007200     0.02119300
H      4.41225400     0.76124300    -0.03496900
H      4.32134900    -1.72083800    -0.06446200
H     -0.28577600    -2.82032900    -0.05779500
H     -3.00127700     2.32636500     0.01597300
