034
BNPAH_000017_PAH31   C20_H12_N01_B01  -848.56872601     0.00000000     2.40053000  4414.91610250     7.03561665   191.44888058 18472.00897286    30.65913960     0.04885845     1.32950612   128.27784009    -5.13650000    -0.18876289  -118.45050486  -495.59691235    -2.50170000    -0.09193578   -57.69057296  -241.37735727     2.63480000     0.09682711    60.75993190   254.21955508
B     -1.86233800    -4.13336400    -0.00000000
C     -3.15631800    -3.36191000    -0.00000000
C     -3.12857300    -1.96692800     0.00000000
C     -4.34386100    -1.18195100     0.00000000
C     -4.32362000     0.18033600     0.00000000
C     -3.08436400     0.91292200     0.00000000
C     -3.05734400     2.32858500    -0.00000000
C     -1.86118700     3.02298600    -0.00000000
C     -0.62425400     2.33397800     0.00000000
C      0.62994500     3.02947700     0.00000000
C      1.81633600     2.34999300     0.00000000
C      1.85086900     0.91412100     0.00000000
C      3.06736400     0.20293700     0.00000000
C      3.07153600    -1.18917200     0.00000000
C      1.86837100    -1.90107500     0.00000000
C      0.62638100    -1.23983800     0.00000000
C     -0.64587400    -1.95021600     0.00000000
N     -0.67528900    -3.31547800     0.00000000
C     -1.86806300    -1.24595600     0.00000000
C     -1.85908300     0.19111500     0.00000000
C     -0.62358800     0.90660400     0.00000000
C      0.61418500     0.19100200     0.00000000
H     -1.71562400    -5.32844600    -0.00000000
H     -4.14265900    -3.83727400    -0.00000000
H     -5.29440500    -1.72119600    -0.00000000
H     -5.25884500     0.74693000     0.00000000
H     -4.00603700     2.87175600    -0.00000000
H     -1.85820600     4.11589600    -0.00000000
H      0.61887800     4.12251200    -0.00000000
H      2.76562300     2.89162800    -0.00000000
H      4.00882400     0.75788000    -0.00000000
H      4.01844300    -1.73365200    -0.00000000
H      1.92221400    -2.99251600    -0.00000000
H      0.23454300    -3.76598500     0.00000000
