038
BNPAH_000196_PAH34   C22_H14_N01_B01  -925.82001263     0.00500000     4.75173000  4801.96204177     7.65241361   208.23278091 20091.40918277    30.39216482     0.04843300     1.31792899   127.16081761    -4.23290000    -0.15555621   -97.61299368  -408.41276556    -3.16690000    -0.11638143   -73.03044950  -305.55940071     1.06600000     0.03917478    24.58254418   102.85336485
C     -6.55360400     0.22383300     0.00544900
C     -6.48087100    -1.17150600    -0.01112300
C     -5.24443500    -1.89102100    -0.02488100
C     -5.22046900    -3.30738900    -0.04153300
C     -4.00494200    -3.98167100    -0.05470100
C     -2.79469700    -3.27303000    -0.05167900
C     -2.77365500    -1.86380500    -0.03529500
C     -4.00976000    -1.16452000    -0.02174400
B     -4.04272700     0.36331700    -0.00377800
C     -5.40436000     1.03269400     0.00985600
C     -2.69439600     1.06448400    -0.00120900
C     -1.50556500     0.34860300    -0.01448100
N     -0.22585100     1.02856900    -0.01146800
C     -0.18022100     2.39837600     0.00557300
C      1.01184300     3.10900100     0.00910800
C      2.22706700     2.44855300    -0.00463900
C      2.23476300     1.02993400    -0.02231700
C      3.43998700     0.28316200    -0.03694200
C      3.41213100    -1.10569100    -0.05402900
C      2.19582100    -1.79062400    -0.05702200
C      0.96496600    -1.09908300    -0.04293800
C     -0.28607700    -1.77439600    -0.04545900
C     -1.49372900    -1.11292500    -0.03202700
C      0.98113800     0.32551300    -0.02548000
H     -7.55188600     0.67718800     0.01507800
H     -7.40859600    -1.75246600    -0.01386300
H     -6.16087900    -3.86632200    -0.04396600
H     -3.98401800    -5.07421800    -0.06754300
H     -1.86913700    -3.85090600    -0.06240100
H     -5.55894400     2.11914300     0.02320000
H      2.17559100    -2.88229500    -0.07038900
H      3.17206500     2.99413400    -0.00206100
H     -1.13327100     2.91086400     0.01642800
H      0.95500300     4.19851400     0.02306100
H      4.38662500     0.82670200    -0.03441700
H      4.34894800    -1.66774700    -0.06518000
H     -0.25351000    -2.86298100    -0.05882400
H     -2.66842700     2.15610000     0.01136600
