036
BNPAH_000030_PAH12   C20_H14_N01_B01  -849.64117921     0.00000000    12.68097000  4461.23287287     7.10942712   193.45736582 18665.79834009    30.55638954     0.04869471     1.32505045   127.84793384    -4.18180000    -0.15367832   -96.43459968  -403.48236505    -3.06450000    -0.11261830   -70.66904938  -295.67930262     1.11730000     0.04106002    25.76555029   107.80306243
C      2.32171400     3.56244200    -0.00000000
B      2.41666300     2.05098000    -0.00000000
C      1.07571100     1.30870700    -0.00000000
C     -0.17446000     2.04403500     0.00000000
C     -0.14332500     3.45996300     0.00000000
C      1.06185200     4.17625800    -0.00000000
C     -1.41566300     1.31083000     0.00000000
C     -2.68481500     1.94225700     0.00000100
C     -3.85871800     1.24357900     0.00000000
N     -3.89375800    -0.13448700     0.00000000
C     -5.14622400    -0.81613800    -0.00000000
C     -6.37457300    -0.12436600    -0.00000000
C     -7.57912200    -0.82078400    -0.00000000
C     -7.60158100    -2.22494300    -0.00000000
C     -6.40216200    -2.91804200    -0.00000000
C     -5.16181000    -2.23780800     0.00000000
C     -3.92014400    -2.94719700     0.00000000
C     -2.74275400    -2.25991800     0.00000000
C     -2.68286800    -0.83549300     0.00000000
C     -1.42792400    -0.13391300     0.00000000
C     -0.18510000    -0.82035400    -0.00000000
C      1.00049800    -0.10293600    -0.00000000
H      3.19107800     4.23156500    -0.00000100
H      3.46186000     1.43369600    -0.00000100
H     -1.07471200     4.03074100     0.00000000
H      0.98465100     5.27128400     0.00000000
H     -2.75797900     3.02882800     0.00000100
H     -4.81361700     1.75476400     0.00000100
H     -6.41877900     0.96214800    -0.00000000
H     -8.51461100    -0.25756800    -0.00000100
H     -8.55233100    -2.76145600    -0.00000100
H     -6.39014100    -4.01037100    -0.00000000
H     -3.93026000    -4.03860100     0.00000100
H     -1.80008100    -2.80059600     0.00000100
H     -0.14469900    -1.90891900     0.00000000
H      1.94358200    -0.65816600    -0.00000000
