042
BNPAH_000393_PAH75   C24_H16_N01_B01 -1003.23045117     0.00000000     5.28323000  5288.87733932     8.42836253   229.34742646 22128.66278771    30.74928686     0.04900211     1.33341527   128.65501622    -5.47960000    -0.20137159  -126.36257889  -528.70103006    -2.45970000    -0.09039231   -56.72202995  -237.32497329     3.01990000     0.11097928    69.64054894   291.37605677
C      2.80272700     0.21141100     0.00000200
C      2.81824000    -1.21250100     0.00000100
C      1.63879900    -1.92303300     0.00000000
C      0.37868300    -1.25027700    -0.00000000
C     -0.84492400    -1.95207700    -0.00000100
C     -2.08128900    -1.29976700    -0.00000100
C     -2.08734300     0.14309500    -0.00000100
C     -3.34996100     0.82834500    -0.00000100
C     -4.53383900     0.15234600    -0.00000100
C     -4.58580000    -1.28902400    -0.00000200
C     -5.84351100    -1.99077900    -0.00000100
C     -7.10010300    -1.28981900    -0.00000000
C     -8.27041200    -1.97397400     0.00000100
C     -8.33748700    -3.41043300     0.00000100
C     -9.55500300    -4.08037900     0.00000200
B     -9.64766100    -5.58772000     0.00000200
C     -8.27282100    -6.25240800     0.00000100
C     -7.13469600    -5.49606800    -0.00000000
N     -7.11166000    -4.10658000    -0.00000000
C     -5.86905400    -3.40784300    -0.00000100
C     -4.63536300    -4.10089200    -0.00000200
C     -3.43345100    -3.42107800    -0.00000200
C     -3.36027700    -2.01036200    -0.00000200
C     -0.88011200     0.84906500    -0.00000000
C      0.36433100     0.19174400     0.00000000
C      1.60770000     0.89487200     0.00000100
H      3.74784600     0.75968600     0.00000300
H      3.77517800    -1.73983600     0.00000200
H      1.65085900    -3.01623200     0.00000000
H     -0.79708400    -3.04248500    -0.00000100
H     -3.34560700     1.92131300    -0.00000100
H     -5.45995500     0.72569000    -0.00000100
H     -7.11885200    -0.20138900    -0.00000000
H     -9.22634600    -1.44846600     0.00000100
H    -10.42262700    -3.41192200     0.00000300
H    -10.68893500    -6.19909900     0.00000300
H     -8.09941800    -7.33389600     0.00000100
H     -6.15303000    -5.95999200    -0.00000100
H     -4.59193600    -5.18647200    -0.00000200
H     -2.51804300    -4.01311100    -0.00000200
H     -0.90541500     1.94243200     0.00000000
H      1.59305300     1.98791500     0.00000200
