042
BNPAH_000564_PAH54   C24_H16_N01_B01 -1003.16251502     0.00000000    14.17141000  5246.24675324     8.36042637   227.49878930 21950.29641556    30.50143461     0.04860713     1.32266738   127.61800241    -4.06950000    -0.14955137   -93.84490014  -392.64706217    -3.31810000    -0.12193793   -76.51720436  -320.14798304     0.75140000     0.02761344    17.32769578    72.49907913
C      7.84896900     1.74237300    -0.00000400
C      7.79525600     0.31574700    -0.00000100
C      6.58789100    -0.34293700     0.00000000
C      5.35706600     0.38707400    -0.00000100
C      4.10649400    -0.24984900     0.00000100
C      2.88241100     0.44707900     0.00000100
C      2.95518300     1.88548700    -0.00000200
C      4.20453000     2.53045400    -0.00000300
C      5.41461600     1.82737500    -0.00000300
C      6.68809200     2.47844100    -0.00000500
C      1.71802400     2.62135600    -0.00000000
C      1.74335900     4.03918500     0.00000000
C      0.60146400     4.79677200     0.00000500
N     -0.58193900     4.13176200     0.00000900
C     -0.67207100     2.78722400     0.00000800
C      0.43597500     1.92443100     0.00000200
C      0.32612200     0.45076300    -0.00000000
C      1.59693200    -0.23964700     0.00000200
C      1.61603200    -1.65954700     0.00000500
C      0.46370000    -2.39175100     0.00000700
C     -0.82696200    -1.79651200     0.00000300
C     -1.94345900    -2.65492100     0.00000300
B     -3.35350900    -2.14047700    -0.00000400
C     -3.40732600    -0.61516200    -0.00001100
C     -2.26285000     0.16629100    -0.00001100
C     -0.91318800    -0.32854100    -0.00000200
H      8.81929000     2.24419400    -0.00000500
H      8.72763000    -0.25397800    -0.00000100
H      6.55158600    -1.43521600     0.00000200
H      4.11725600    -1.33766700     0.00000300
H      4.26679700     3.61911600    -0.00000500
H      6.72163000     3.57137700    -0.00000600
H      2.69358600     4.56722400    -0.00000200
H      0.57270000     5.88499200     0.00000600
H     -1.45076200     4.66070300     0.00001400
H     -2.47656700     1.22823100    -0.00001900
H      2.56351200    -2.19268600     0.00000800
H      0.51737400    -3.48395600     0.00001000
H     -1.68423500    -3.72237000     0.00000800
H     -4.34230900    -2.84326900    -0.00000400
H     -4.34812200    -0.04691800    -0.00001900
H     -1.68788600     2.42779000     0.00001400
