042
BNPAH_000461_PAH64   C24_H16_N01_B01 -1003.19240108     5.98200000     5.96798000  5265.00054353     8.39031244   228.31203061 22028.76227413    30.61046828     0.04878089     1.32739553   128.07419928    -4.34630000    -0.15972358  -100.22805982  -419.35420231    -2.77350000    -0.10192425   -63.95842991  -267.60207075     1.57280000     0.05779933    36.26962991   151.75213156
C    -12.07787200    -7.35970000    10.88798000
C    -10.99667400    -6.55866300    10.45705600
C    -13.36626300    -6.87295500    10.79078900
C    -11.21881300    -5.32468800     9.87543500
C    -13.62335500    -5.58726400    10.24500900
C    -12.53675200    -4.81411800     9.71483400
C    -14.94202400    -5.03824600    10.28684900
C    -12.84056700    -3.51783200     9.15104300
C    -15.16110300    -3.73530000     9.93457100
C    -14.10243100    -2.93342200     9.40644200
N    -11.88664400    -2.75579800     8.43824700
C    -14.27033400    -1.52621700     9.22224500
C    -13.19048900    -0.75968700     8.88900200
C    -11.96604400    -1.37117800     8.49266100
C    -10.85246600    -0.61876500     8.07795000
C    -10.91616200    -3.39429500     7.61429800
C     -9.73800300    -2.63526600     7.30161900
C     -9.72778100    -1.25015700     7.58307300
B    -11.16934900    -4.77067700     6.98170900
C    -10.03183400    -5.28160900     6.17509900
C     -8.62932000    -3.26326500     6.59890700
C     -8.79524700    -4.58389400     6.04753900
C     -7.69275800    -5.15207100     5.34099600
C     -7.38547900    -2.60352100     6.42721900
C     -6.49161500    -4.48449900     5.19632600
C     -6.33092800    -3.19499800     5.75069200
H     -7.82144500    -6.14965700     4.91193600
H     -7.23051700    -1.61252800     6.85947400
H     -5.66428300    -4.95289400     4.65635300
H     -5.37950600    -2.66687700     5.65294200
H    -14.21153100    -7.45909300    11.16001400
H    -10.36565800    -4.73457000     9.54687800
H    -11.89113500    -8.34645500    11.31775700
H     -9.97188600    -6.91689600    10.57618300
H    -15.75635000    -5.65613400    10.67230800
H    -16.14426900    -3.27552400    10.05812600
H    -15.24085200    -1.07361200     9.43622600
H    -13.24285900     0.32932100     8.85473200
H    -10.91228900     0.46772200     8.15060900
H     -8.86167000    -0.64444700     7.31526900
H    -12.22809500    -5.33869300     7.09766500
H    -10.08118700    -6.23428900     5.63256700
