042
BNPAH_000086_PAH51   C24_H16_N01_B01 -1003.18479571     0.00800000     8.85471000  5260.22810159     8.38270707   228.10507794 22008.79437705    30.58272152     0.04873667     1.32619231   127.95810684    -4.77470000    -0.17546699  -110.10719859  -460.68851891    -2.71180000    -0.09965681   -62.53559410  -261.64892571     2.06290000     0.07581018    47.57160449   199.03959320
C     -2.99701500    -3.09925200    -0.00030500
C     -2.81341600    -1.73255700     0.00039100
C     -1.49182200    -1.18983400     0.00024400
B     -0.27645900    -2.13841900    -0.00069900
C     -0.58855100    -3.64800700    -0.00147200
C     -1.90737500    -4.04101900    -0.00122300
C      1.09745400    -1.50355400    -0.00081300
C      1.31157900    -0.11221600    -0.00001200
C      0.08011300     0.71587100     0.00057800
C      0.19074900     2.12201800     0.00077500
C      1.40001000     2.73400600     0.00035400
N      2.57654200     1.99183200    -0.00000300
C      3.72195100     2.77019600    -0.00050100
C      4.96339700     2.24253500    -0.00077100
C      5.13242200     0.83113100    -0.00024600
C      6.47187600     0.27661400    -0.00021100
C      7.64369700     1.08284300    -0.00105500
C      8.90558200     0.51500600    -0.00096700
C      9.06358100    -0.88935100    -0.00000000
C      7.94601200    -1.70193300     0.00086800
C      6.64364500    -1.13987000     0.00077300
C      5.47367500    -1.94745000     0.00176700
C      4.21427900    -1.40929400     0.00162500
C      3.96220600     0.00485500     0.00041800
C      2.60831800     0.58833300     0.00012700
C     -1.22252600     0.18032800     0.00076700
H     -4.01645200    -3.49846300    -0.00018000
H     -3.68778200    -1.06951800     0.00103700
H      0.17557000    -4.43665900    -0.00219000
H     -2.17857700    -5.10424800    -0.00173100
H      3.39604200    -2.10806600     0.00262600
H     -0.71222700     2.73551400     0.00111200
H      1.53832900     3.81249800     0.00031700
H      3.53824700     3.84280100    -0.00068300
H      5.81100000     2.92353900    -0.00120200
H      7.56731700     2.17026800    -0.00181500
H      9.78707800     1.16024700    -0.00164700
H     10.06485500    -1.32595300     0.00007100
H      8.04781200    -2.79000200     0.00164900
H      5.58397800    -3.03465500     0.00270800
H      1.93182200    -2.19068000    -0.00174700
H     -2.04345700     0.91059500     0.00126800
