018
BNPAH_001402_PAH01   C04_H08_N03_B03  -395.71226068     0.00000000    12.61858000  1818.29926641     2.89764433    78.84891831  7607.76413066    26.73969509     0.04261242     1.15954292   111.87888426    -4.59610000    -0.16890356  -105.98858472  -443.45623846    -2.59750000    -0.09545637   -59.89977346  -250.62065216     1.99860000     0.07344720    46.08881126   192.83558630
C      0.00000000     1.32898500     1.57711700
B     -0.00000000     2.65109800     0.83632300
B     -0.00000000     2.52749600    -0.84717600
C      0.00000000     1.10900100    -1.46921500
N      0.00000000    -1.20942100    -1.32073800
C      0.00000000    -2.41377000    -0.71345300
N     -0.00000000    -2.47359600     0.62525800
C      0.00000000    -1.36126300     1.42596500
B      0.00000000     0.03101000     0.85724200
N      0.00000000     0.00219000    -0.71878100
H      0.00000000     1.27436100     2.67811700
H     -0.00000000     3.70789900     1.44409400
H     -0.00000000     3.41280400    -1.68050800
H     -0.00000000     0.89372800    -2.55307800
H      0.00000000    -1.17915400    -2.34064000
H     -0.00000000    -3.30711800    -1.32957700
H     -0.00000000    -3.40505400     1.03608200
H     -0.00000000    -1.58919500     2.49296900
