042
BNPAH_000412_PAH57   C24_H16_N01_B01 -1003.27426035     0.00000000     1.55073000  5316.36801955     8.47217172   230.53953517 22243.68379380    30.90911639     0.04925681     1.34034613   129.32374298    -5.29960000    -0.19475671  -122.21168024  -511.33367014    -2.21610000    -0.08144017   -51.10448045  -213.82114620     3.08350000     0.11331654    71.10719980   297.51252394
C      2.76949800    -0.12491800     0.00000100
C      2.69155100    -1.50917900     0.00000100
C      1.44099800    -2.17160800     0.00000000
C      1.37506100    -3.61154400     0.00000000
C      0.18077700    -4.26563900    -0.00000000
C     -1.06334400    -3.54114800    -0.00000000
C     -2.29182200    -4.20858400    -0.00000100
C     -3.51512800    -3.51840500    -0.00000100
C     -4.76143400    -4.21126900    -0.00000100
C     -5.95120500    -3.53619900    -0.00000000
C     -6.00506100    -2.10450000    -0.00000000
N     -7.24817000    -1.42922700     0.00000000
C     -8.43794700    -2.13695000     0.00000100
C     -9.66730800    -1.53444800     0.00000100
C     -9.81707500    -0.11565000     0.00000100
C     -8.70250000     0.68536900    -0.00000000
B     -7.31785900     0.04987400    -0.00000000
C     -5.98594600     0.78679400    -0.00000100
C     -4.82276200     0.07412500    -0.00000100
C     -4.79701500    -1.36600500    -0.00000000
C     -3.52535500    -2.08148500    -0.00000000
C     -2.27880700    -1.42374400    -0.00000000
C     -1.05280000    -2.10151700    -0.00000000
C      0.23537800    -1.40439800     0.00000000
C      0.34795600     0.00562800    -0.00000000
C      1.58540300     0.63572900     0.00000000
H      3.74213600     0.37261800     0.00000100
H      3.60322000    -2.11268900     0.00000100
H      2.31405200    -4.17120000     0.00000000
H      0.14399100    -5.35805500    -0.00000000
H     -2.30343100    -5.30217900    -0.00000100
H     -4.75795600    -5.30399900    -0.00000100
H     -6.86510200    -4.12522900    -0.00000100
H     -8.38025400    -3.22152500     0.00000200
H    -10.54692400    -2.18146800     0.00000200
H    -10.83110900     0.29879600     0.00000100
H     -8.83404800     1.77270900    -0.00000100
H     -5.92551000     1.87995900    -0.00000100
H     -3.86448300     0.59761200    -0.00000100
H     -2.26085700    -0.33646700    -0.00000000
H     -0.55164500     0.62291300    -0.00000000
H      1.63665600     1.72710200     0.00000000
