042
BNPAH_000401_PAH75   C24_H16_N01_B01 -1003.17088414     0.00000000    22.54001000  5251.49845365     8.36879549   227.72652458 21972.26953007    30.53196775     0.04865579     1.32399142   127.74575307    -3.85320000    -0.14160249   -88.85690360  -371.77728466    -3.57750000    -0.13147070   -82.49911051  -345.17627839     0.27570000     0.01013179     6.35779309    26.60100628
N      2.77341400     0.20156800     0.00000100
C      2.82775800    -1.17136400     0.00000000
C      1.66590900    -1.89454600    -0.00000000
C      0.39082400    -1.23952200    -0.00000000
C     -0.81938200    -1.93058100    -0.00000100
C     -2.07043400    -1.27337400    -0.00000100
C     -2.07618000     0.17913400    -0.00000000
C     -3.33110500     0.85658400    -0.00000000
C     -4.51148000     0.15669100    -0.00000000
C     -4.56596200    -1.27140800    -0.00000000
C     -5.82845200    -1.97933200    -0.00000000
C     -7.07994700    -1.31287100    -0.00000000
C     -8.26522300    -2.02890400    -0.00000000
C     -8.31376300    -3.43850800     0.00000000
C     -9.57729300    -4.11379100     0.00000000
C     -9.70376100    -5.48807200     0.00000100
B     -8.44788800    -6.35655600     0.00000100
C     -7.12620400    -5.59397200     0.00000000
C     -7.07691800    -4.18288800     0.00000000
C     -5.82919100    -3.42501900    -0.00000000
C     -4.57407200    -4.08607200    -0.00000100
C     -3.37583900    -3.40788700    -0.00000100
C     -3.32747600    -1.98835400    -0.00000100
C     -0.86223400     0.88287800     0.00000000
C      0.37728500     0.21457500     0.00000000
C      1.60736200     0.89113200     0.00000100
H      3.64577200     0.72243100     0.00000100
H      3.82282900    -1.61415100     0.00000000
H      1.71743400    -2.98426000    -0.00000100
H     -0.77935900    -3.01988200    -0.00000100
H     -3.33790500     1.94911200    -0.00000000
H     -5.44459100     0.72015000    -0.00000000
H     -7.12638600    -0.22367400    -0.00000000
H     -9.21338700    -1.48177700    -0.00000000
H    -10.46392400    -3.46486700     0.00000000
H    -10.72431500    -5.89153100     0.00000100
H     -8.48056400    -7.56984900     0.00000100
H     -6.17110200    -6.13062800     0.00000100
H     -4.55449500    -5.17545700    -0.00000100
H     -2.45344900    -3.98959100    -0.00000100
H     -0.88293400     1.97576300     0.00000000
H      1.68202700     1.97866600     0.00000100
