036
BNPAH_000138_PAH16   C20_H14_N01_B01  -849.67906965     0.00000000     7.24400000  4485.00948444     7.14731756   194.48841728 18765.27968290    30.71924304     0.04895423     1.33211245   128.52931288    -4.77250000    -0.17538614  -110.05646539  -460.47625118    -2.73240000    -0.10041385   -63.01064139  -263.63652357     2.04010000     0.07497229    47.04582400   196.83972761
C      5.28256600     1.33075900     0.00000100
C      5.09928400    -0.04840900     0.00000100
C      3.80029500    -0.60815900     0.00000000
C      2.65380200     0.24929900    -0.00000100
C      2.88113500     1.64206000    -0.00000100
C      4.16607500     2.18379800    -0.00000000
B      1.24005300    -0.41157400    -0.00000100
C      1.20086400    -1.96228300    -0.00000100
C      2.43866400    -2.69652300    -0.00000000
C      3.64559800    -2.05219700     0.00000000
C     -0.03527100    -2.60441600    -0.00000100
C     -1.23557800    -1.86976300    -0.00000100
N     -2.42083400    -2.57044300    -0.00000000
C     -3.64637700    -2.04542800     0.00000000
C     -3.80287800    -0.64109500     0.00000000
C     -5.10116800    -0.06041600     0.00000100
C     -5.25348800     1.31152500     0.00000100
C     -4.10589500     2.13721800     0.00000000
C     -2.83305100     1.58791700    -0.00000000
C     -2.63003600     0.18650200    -0.00000100
C     -1.29734300    -0.41569800    -0.00000100
C     -0.09861200     0.29908700    -0.00000100
H      6.29269300     1.74907100     0.00000100
H      5.96729700    -0.71489900     0.00000200
H      2.02152400     2.31924900    -0.00000100
H      4.30704000     3.26811700    -0.00000000
H      2.42107300    -3.79363200     0.00000000
H      4.56545700    -2.64621600     0.00000100
H     -0.10681100    -3.70235400    -0.00000000
H     -2.33377100    -3.58593400    -0.00000000
H     -4.48800900    -2.73791500     0.00000100
H     -5.97445200    -0.71811400     0.00000100
H     -6.25056700     1.75694300     0.00000200
H     -4.22279400     3.22352900     0.00000000
H     -1.96649300     2.24931900    -0.00000100
H     -0.17999000     1.39109800    -0.00000100
