042
BNPAH_000254_PAH39   C24_H16_N01_B01 -1003.19544133     0.00000000    12.07877000  5266.90832666     8.39335268   228.39475991 22036.74443875    30.62156004     0.04879856     1.32787651   128.12060721    -4.43550000    -0.16300162  -102.28506071  -427.96069400    -2.86250000    -0.10519494   -66.01081868  -276.18926538     1.57300000     0.05780668    36.27424202   151.77142862
C      2.77555400     0.26448400     0.00000300
C      2.68881800    -1.15264100     0.00000200
C      1.46443900    -1.75951400     0.00000100
N      0.27667700    -1.04897900    -0.00000000
C      0.33347600     0.35048000     0.00000000
C     -0.86320200     1.07738700    -0.00000000
C     -2.08451600     0.42497400    -0.00000100
C     -2.18644100    -0.97721100    -0.00000100
C     -3.49451900    -1.64778200    -0.00000200
C     -4.69604100    -0.93506700    -0.00000200
B     -6.02989200    -1.63228700    -0.00000200
C     -6.02440900    -3.17666100    -0.00000100
C     -4.77285000    -3.85100300    -0.00000200
C     -4.75466700    -5.28737000    -0.00000200
C     -5.90635200    -6.02736100    -0.00000100
C     -7.18772200    -5.39967100     0.00000000
C     -8.38463900    -6.16157500     0.00000200
C     -9.61995800    -5.53972300     0.00000300
C     -9.68897100    -4.12847100     0.00000200
C     -8.53259500    -3.36680200     0.00000100
C     -7.24359800    -3.96810200    -0.00000000
C     -3.51279400    -3.10453900    -0.00000200
C     -2.28269000    -3.76747100    -0.00000200
C     -1.03308200    -3.13616700    -0.00000200
C     -0.96863000    -1.74238200    -0.00000100
C      1.60786800     0.98404100     0.00000200
H      3.74547800     0.76421800     0.00000400
H      3.58235200    -1.77763800     0.00000300
H      1.36910200    -2.83913600     0.00000000
H     -0.80146300     2.16564100    -0.00000000
H     -2.99683900     1.01982700    -0.00000200
H     -4.64611300     0.15830600    -0.00000200
H     -7.05026000    -0.98218500    -0.00000200
H     -3.80739200    -5.82756400    -0.00000200
H     -5.85486600    -7.12006600    -0.00000100
H     -8.31224900    -7.25313900     0.00000200
H    -10.53745200    -6.13385100     0.00000400
H    -10.66371400    -3.63349800     0.00000300
H     -8.59720300    -2.27897800     0.00000100
H     -2.26271700    -4.85690300    -0.00000200
H     -0.15019800    -3.77058900    -0.00000200
H      1.61197900     2.07497000     0.00000200
