036
BNPAH_000219_PAH16   C20_H14_N01_B01  -849.68525167     0.00000000     5.97698000  4488.88876092     7.15349958   194.65663863 18781.51057569    30.74581343     0.04899657     1.33326465   128.64048339    -4.52270000    -0.16620616  -104.29594049  -436.37421503    -2.65140000    -0.09743715   -61.14273700  -255.82121160     1.87130000     0.06876901    43.15320349   180.55300342
C      5.03598300     1.48968900     0.00000100
C      4.98535900     0.10635800     0.00000000
C      3.73825200    -0.56793300    -0.00000000
C      2.50864000     0.16818800    -0.00000000
C      2.60305500     1.57884200     0.00000000
C      3.83301100     2.22448500     0.00000100
C      1.23764800    -0.55958100    -0.00000000
C      1.27569900    -2.00241000    -0.00000000
N      2.51322100    -2.60184200    -0.00000100
C      3.68959900    -1.99017900    -0.00000000
B      0.01395000    -2.84505300    -0.00000000
C     -1.28666900    -2.06207200    -0.00000000
C     -2.55904300    -2.72310400     0.00000000
C     -3.74246700    -2.03570900     0.00000100
C     -3.75082800    -0.60257600     0.00000000
C     -4.97598500     0.11352700     0.00000100
C     -5.00086200     1.49695900     0.00000000
C     -3.78612400     2.21316100    -0.00000100
C     -2.57709500     1.53525200    -0.00000100
C     -2.51148700     0.11768100    -0.00000000
C     -1.25141000    -0.62647400    -0.00000000
C     -0.00754000     0.06615500    -0.00000000
H      5.99729300     2.00763600     0.00000100
H      5.90610400    -0.48298500     0.00000000
H      1.69155200     2.17715200     0.00000000
H      3.86645700     3.31663000     0.00000100
H      2.49439200    -3.62246700    -0.00000100
H      4.58645600    -2.61017600    -0.00000000
H      0.08287200    -4.05782900    -0.00000000
H     -2.56579600    -3.81686800     0.00000000
H     -4.70065000    -2.56266800     0.00000100
H     -5.91023100    -0.45485400     0.00000100
H     -5.95366600     2.03229900     0.00000000
H     -3.79564000     3.30600900    -0.00000100
H     -1.65680800     2.12066700    -0.00000100
H     -0.02724100     1.15411200    -0.00000000
