034
BNPAH_000107_PAH30   C20_H12_N01_B01  -848.49675091     0.00000000     5.21881000  4369.75103909     6.96364154   189.49033808 18283.03834755    30.34549333     0.04835862     1.31590513   126.96554409    -4.64260000    -0.17061240  -107.06090020  -447.94280644    -2.79770000    -0.10281358   -64.51649517  -269.93701581     1.84490000     0.06779883    42.54440503   178.00579063
C      5.33635700    -0.31652800     0.00000000
N      4.14188500    -0.96044600     0.00000000
C      2.91173000    -0.33098700     0.00000000
C      1.72347400    -1.09919300     0.00000000
C      0.46758900    -0.46946300     0.00000000
B      0.45781100     1.05574700     0.00000000
C     -0.82861900     1.81902900     0.00000000
C     -2.05049000     1.09022200    -0.00000000
C     -3.25621400     1.81033500    -0.00000000
C     -3.23817900     3.22166200     0.00000000
C     -2.04271200     3.93599800     0.00000000
C     -0.79535800     3.24908600     0.00000000
C      0.46431200     3.93573300     0.00000000
C      1.70446100     3.26819600     0.00000000
C      2.97159000     3.94683600    -0.00000000
C      4.16155800     3.25143000    -0.00000000
C      4.19838900     1.81576600    -0.00000000
C      5.40129300     1.06118000    -0.00000000
C      2.95012600     1.12158900     0.00000000
C      1.73781800     1.82938000     0.00000000
C     -1.99312700    -0.36733600    -0.00000000
C     -0.82808800    -1.10609500    -0.00000000
H      6.22117300    -0.95377400     0.00000000
H      4.14161200    -1.97732400     0.00000000
H      1.82695600    -2.19385300     0.00000000
H     -4.21627400     1.28480400    -0.00000000
H     -4.18686500     3.76490300     0.00000000
H     -2.06434800     5.03012800     0.00000000
H      0.45648000     5.03061800     0.00000000
H      2.99318900     5.04118500    -0.00000000
H      5.11068300     3.79379600    -0.00000000
H      6.37579800     1.55144700    -0.00000000
H     -2.94934900    -0.90081400    -0.00000000
H     -0.90890100    -2.20047700    -0.00000000
