042
BNPAH_000081_PAH55   C24_H16_N01_B01 -1003.17472998     0.00500000     8.04956000  5253.91175814     8.37264133   227.83117536 21982.36679606    30.54599859     0.04867815     1.32459986   127.80445810    -4.46280000    -0.16400488  -102.91461367  -430.59474359    -2.98510000    -0.10970040   -68.83804187  -288.01836719     1.47770000     0.05430447    34.07657180   142.57637640
C      2.63239000    -0.20335400    -0.00046300
C      2.44816400    -1.57387500     0.00027600
C      1.16621100    -2.17809900     0.00035100
B      1.11100500    -3.70195400     0.00092800
C     -0.25263800    -4.29108100     0.00076100
C     -1.39339700    -3.48562500     0.00027700
N     -2.68985700    -4.17503400     0.00004600
C     -2.70574500    -5.55531400     0.00009500
C     -3.84993300    -6.30792600    -0.00016300
C     -5.09567900    -5.65764000    -0.00049700
C     -5.09421300    -4.28168200    -0.00054400
C     -3.90181200    -3.51354700    -0.00028000
C     -3.91172300    -2.07464200    -0.00022200
C     -5.15822900    -1.42497700    -0.00032000
C     -5.30075900    -0.03611500    -0.00004500
C     -6.56591100     0.62793900    -0.00010400
C     -6.62670500     2.00160000     0.00027000
C     -5.42487000     2.77261200     0.00073100
C     -4.19349700     2.15996800     0.00080000
C     -4.09031600     0.73162300     0.00039800
C     -2.85001500     0.07595100     0.00043600
C     -2.66090700    -1.32686300     0.00002600
C     -1.37600600    -2.03024300    -0.00000200
C     -0.03669000    -1.37768100    -0.00021900
C      0.21038800     0.03259800    -0.00113400
C      1.47973700     0.59455000    -0.00123100
H      3.62991100     0.24303700    -0.00053900
H      3.31227600    -2.24389900     0.00077900
H      2.11883700    -4.37422500     0.00136700
H     -0.33048300    -5.37428800     0.00105300
H     -1.74076500    -6.03812400     0.00033100
H     -3.76054500    -7.39463100    -0.00010600
H     -6.03298700    -6.21614900    -0.00070800
H     -6.04458100    -3.75777100    -0.00078700
H     -6.07833500    -2.00597500    -0.00055400
H     -7.48011900     0.02799600    -0.00043600
H     -7.59293900     2.51121100     0.00022900
H     -5.49068400     3.86338500     0.00103300
H     -3.27753400     2.75631900     0.00115200
H     -0.57489200     0.76846000    -0.00194400
H     -2.01272000     0.74850800     0.00091300
H      1.56347800     1.68494800    -0.00195300
