042
BNPAH_000536_PAH68   C24_H16_N01_B01 -1003.21813880     0.00000000     4.81696000  5281.15120519     8.41605015   229.01238958 22096.33664251    30.70436747     0.04893052     1.33146738   128.46707349    -4.93880000    -0.18149755  -113.89143452  -476.52176204    -2.76190000    -0.10149795   -63.69092755  -266.48284089     2.17690000     0.07999960    50.20050697   210.03892115
C      2.40240900     2.09676600    -0.00000100
C      3.43549400     1.18174300     0.00000200
C      3.18082700    -0.21660600     0.00000200
C      4.26397800    -1.14045700     0.00000400
C      4.02098000    -2.48779900     0.00000300
C      2.68731400    -3.00395100     0.00000100
C      2.56903700    -4.45155500    -0.00000000
C      1.38860300    -5.12896700    -0.00000200
C      0.14723600    -4.40121700    -0.00000200
C     -1.03355400    -5.10982400    -0.00000200
N     -2.27950000    -4.51946600    -0.00000200
C     -3.39736100    -5.32207300    -0.00000200
C     -4.68333400    -4.82195500    -0.00000000
C     -5.84062200    -5.67535000    -0.00000000
C     -7.09686700    -5.13157500     0.00000200
C     -7.27901900    -3.70697400     0.00000300
C     -6.20192300    -2.86034000     0.00000200
C     -4.86301900    -3.38069000     0.00000100
C     -3.72688700    -2.58531200     0.00000100
C     -2.40184300    -3.09981000    -0.00000100
C     -1.26104100    -2.28920300    -0.00000100
B      0.14683800    -2.84182700    -0.00000200
C      1.55863400    -2.13837200    -0.00000100
C      1.82780000    -0.71181300    -0.00000100
C      0.79785600     0.27266300    -0.00000400
C      1.06895500     1.62845700    -0.00000400
H      2.60993500     3.16961900    -0.00000000
H      4.47582300     1.51910900     0.00000400
H      5.28755600    -0.75579500     0.00000600
H      4.85422900    -3.19622700     0.00000400
H      3.50713100    -5.01506700     0.00000100
H      1.38839900    -6.22510500    -0.00000200
H     -1.06763800    -6.20334000    -0.00000300
H     -3.19350300    -6.39342400    -0.00000300
H     -5.69930600    -6.75904500    -0.00000100
H     -7.97478300    -5.78149600     0.00000200
H     -8.29338500    -3.30132900     0.00000400
H     -6.34214900    -1.77672400     0.00000300
H     -3.82446300    -1.49803300     0.00000100
H     -0.23789600    -0.04882500    -0.00000700
H     -1.53616600    -1.23235300     0.00000000
H      0.24216500     2.34355200    -0.00000600
