042
BNPAH_000123_PAH57   C24_H16_N01_B01 -1003.23023913     0.00100000     3.89834000  5288.74428191     8.42815049   229.34165654 22128.10607551    30.74851327     0.04900087     1.33338172   128.65177952    -5.08940000    -0.18703200  -117.36435305  -491.05245317    -2.36330000    -0.08684967   -54.49899312  -228.02378720     2.72610000     0.10018233    62.86535994   263.02866597
C      2.63379100    -0.00977200    -0.00000200
C      2.64500800    -1.37388100    -0.00000300
C      1.44796100    -2.17625400    -0.00000200
C      1.52080500    -3.56714200    -0.00000200
B      0.28670500    -4.40910200    -0.00000000
C     -1.03310100    -3.60817700     0.00000100
C     -2.27722300    -4.25163800     0.00000200
C     -3.50441000    -3.56932600     0.00000200
C     -4.75597400    -4.26296800     0.00000200
C     -5.93977200    -3.58154100     0.00000100
C     -5.98571200    -2.14577200     0.00000100
C     -7.25287200    -1.43546700    -0.00000000
C     -8.51018500    -2.09729800    -0.00000100
C     -9.69999300    -1.38944900    -0.00000200
C     -9.69435300     0.02285400    -0.00000200
C     -8.48933500     0.69976400    -0.00000100
C     -7.25646600    -0.00366400    -0.00000000
C     -6.00947900     0.69122200     0.00000100
C     -4.82038800     0.01183300     0.00000200
C     -4.76619300    -1.41787000     0.00000100
C     -3.49607800    -2.13639500     0.00000200
C     -2.25122700    -1.47775700     0.00000200
C     -1.03565200    -2.17570700     0.00000200
N      0.21483900    -1.47610200     0.00000100
C      0.23181800    -0.09062400     0.00000300
C      1.37283300     0.65356200     0.00000100
H      3.56426800     0.56142600    -0.00000400
H      3.58416500    -1.92891000    -0.00000600
H      2.54287400    -3.95786100    -0.00000400
H      0.27432100    -5.61745100    -0.00000000
H     -2.28664700    -5.34516200     0.00000200
H     -4.74653700    -5.35573100     0.00000200
H     -6.87182000    -4.14634800     0.00000100
H     -8.55204400    -3.18677500    -0.00000100
H    -10.64993200    -1.92931400    -0.00000300
H    -10.63780200     0.57380500    -0.00000300
H     -8.46753100     1.79283900    -0.00000100
H     -6.01797700     1.78424700     0.00000100
H     -3.89417400     0.58749900     0.00000200
H     -2.27087000    -0.39288000     0.00000100
H     -0.73609500     0.39629400     0.00000600
H      1.29427600     1.74099300     0.00000300
