038
BNPAH_000086_PAH66   C22_H14_N01_B01  -925.82848024     0.00000000     5.99077000  4807.27555166     7.66088123   208.46319650 20113.64090815    30.42579463     0.04848659     1.31938732   127.30152473    -4.51420000    -0.16589379  -104.09992584  -435.55408970    -2.65640000    -0.09762090   -61.25803974  -256.30363827     1.85780000     0.06827289    42.84188610   179.25045143
C      4.25977400    -2.86349700     0.00000000
C      3.13809600    -3.75945100     0.00000100
C      1.82338500    -3.34891400     0.00000100
B      1.47257000    -1.83619900     0.00000000
C      2.75188100    -0.93830100    -0.00000000
C      4.07381000    -1.50849600    -0.00000000
C      2.63026000     0.43902100    -0.00000100
C      1.37854500     1.11076400    -0.00000000
C      1.37113500     2.52427400    -0.00000000
C      0.18697000     3.24256200    -0.00000000
C     -1.02603400     2.54723700     0.00000000
C     -1.07446100     1.14390000     0.00000000
C     -2.36948300     0.46868700     0.00000000
C     -3.57093400     1.17321000     0.00000100
C     -4.81737700     0.53114400     0.00000100
C     -4.85350600    -0.83830900     0.00000000
C     -3.65258100    -1.59840800    -0.00000000
N     -2.39985200    -0.93630600     0.00000000
C     -1.18936000    -1.68697100     0.00000000
C     -1.33149700    -3.09097400    -0.00000100
C     -2.55038300    -3.74369300    -0.00000100
C     -3.71982900    -2.99699600    -0.00000100
C      0.10739900    -1.05984000     0.00000000
C      0.13445700     0.37342900    -0.00000000
H      5.26967600    -3.28308300     0.00000000
H      3.36610600    -4.83265200     0.00000100
H     -0.41585400    -3.66156800    -0.00000100
H      4.94071700    -0.83649600    -0.00000100
H      3.52812800     1.07163500    -0.00000100
H      2.33278500     3.04447400    -0.00000100
H      0.19099300     4.33424300    -0.00000000
H     -1.94488200     3.13170200     0.00000000
H     -3.53585000     2.25804700     0.00000100
H     -5.73671200     1.11972900     0.00000100
H     -5.79034100    -1.39537500    -0.00000000
H      1.12456100    -4.19127700     0.00000200
H     -2.58396700    -4.83510400    -0.00000100
H     -4.70769100    -3.45670700    -0.00000100
