038
BNPAH_000095_PAH34   C22_H14_N01_B01  -925.84127584     0.00400000     3.96633000  4815.30490981     7.67367683   208.81138242 20147.23574265    30.47661335     0.04856757     1.32159103   127.51415026    -4.74530000    -0.17438656  -109.42921848  -457.85185013    -2.97510000    -0.10933291   -68.60743639  -287.05351386     1.77020000     0.06505365    40.82178209   170.79833627
C     -6.43237000     0.22915400     0.00503100
C     -6.41748200    -1.13785800    -0.01117300
N     -5.23260100    -1.87403600    -0.02482700
C     -5.31547300    -3.24663000    -0.04056600
B     -4.09658200    -4.10948200    -0.05596300
C     -2.80283000    -3.32717000    -0.05238200
C     -2.77757600    -1.92919800    -0.03604000
C     -4.00520300    -1.19569400    -0.02208500
C     -4.01690400     0.23698400    -0.00506400
C     -5.22042500     0.94343000     0.00838600
C     -2.76378800     0.93663400    -0.00199700
C     -1.54481700     0.30758600    -0.01463700
C     -0.27463900     1.06361200    -0.01086700
C     -0.22820800     2.46318000     0.00621400
C      0.99207400     3.16105100     0.00943900
C      2.19649000     2.47774300    -0.00431900
C      2.21149900     1.06000500    -0.02185100
C      3.42933300     0.31939900    -0.03635400
C      3.41381900    -1.06340800    -0.05332600
C      2.19044900    -1.76220600    -0.05646900
C      0.96931600    -1.07879300    -0.04261500
C     -0.28390900    -1.78156500    -0.04553800
C     -1.50570400    -1.15499300    -0.03243200
C      0.96486300     0.35277500    -0.02504600
H     -7.39466800     0.74335900     0.01513900
H     -7.32087100    -1.74538700    -0.01453900
H     -6.35491900    -3.58624100    -0.04009500
H     -4.16588300    -5.31400500    -0.06980300
H     -1.83502100    -3.83685500    -0.06253500
H     -5.21162300     2.03460000     0.02128100
H      2.18770300    -2.85512100    -0.06987700
H      3.14499200     3.02065700    -0.00181700
H     -1.15213000     3.04298400     0.01748300
H      0.98212900     4.25347300     0.02297800
H      4.37641900     0.86464200    -0.03382700
H      4.35316100    -1.62123400    -0.06436500
H     -0.23036200    -2.87070200    -0.05905200
H     -2.82633900     2.02539800     0.01124100
