018
BNPAH_002095_PAH01   C02_H08_N04_B04  -398.96182033     0.00000000    12.31712000  1631.69217021     2.60026699    70.75686880  6827.00004016    23.99547309     0.03823922     1.04054219   100.39705941    -4.28410000    -0.15743777   -98.79369374  -413.35281460    -2.42430000    -0.08909138   -55.90568655  -233.90939251     1.85980000     0.06834639    42.88800719   179.44342209
B      0.00000000     1.32101800     1.78716000
B      0.00000000     2.75828600     0.83105200
B     -0.00000000     2.54397100    -0.88028000
C     -0.00000000     1.13613900    -1.50102100
N      0.00000000    -1.23483900    -1.38201400
N      0.00000100    -2.45909200    -0.74390900
N     -0.00000200    -2.53452700     0.63962700
N     -0.00000100    -1.37404200     1.36771000
B     -0.00000000    -0.05939700     0.84753700
C     -0.00000000    -0.03604500    -0.75442000
H      0.00000100     1.25328800     3.00671600
H      0.00000000     3.87749300     1.31484000
H     -0.00000000     3.45847300    -1.68671700
H     -0.00000100     0.99703400    -2.59824900
H      0.00000000    -1.31909600    -2.39613900
H      0.00000200    -3.31174900    -1.27902900
H      0.00000000    -3.45022200     1.06134900
H     -0.00000000    -1.56669100     2.36578800
