042
BNPAH_000604_PAH63   C24_H16_N01_B01 -1003.18449675     0.02100000     5.78014000  5260.04049718     8.38240810   228.09694264 22008.00944020    30.58163080     0.04873493     1.32614502   127.95354327    -4.71030000    -0.17310033  -108.62209930  -454.47486348    -2.73810000    -0.10062332   -63.14208651  -264.18648997     1.97220000     0.07247701    45.48001279   190.28837351
C      2.68774200    -0.09612100    -0.00055200
C      2.40351200    -1.46317900    -0.00206700
C      1.08342700    -1.93467500    -0.00155600
N      0.99088400    -3.31338800    -0.00301400
C     -0.14129800    -3.99095800    -0.00267900
C     -1.37747700    -3.33700400    -0.00100600
C     -2.58251200    -4.16107500    -0.00004200
C     -2.46156700    -5.57546300     0.00001500
C     -3.55124000    -6.42482100     0.00207600
C     -4.82843400    -5.85745500     0.00442400
C     -4.96961900    -4.47932000     0.00413000
C     -3.88147300    -3.56192700     0.00137900
C     -3.98920100    -2.08424400     0.00049500
C     -5.26696300    -1.33401400    -0.00072700
C     -6.59455300    -1.87203000    -0.00417900
C     -7.74341900    -1.09905700    -0.00480500
C     -7.68259200     0.30652600    -0.00225500
C     -6.43616400     0.88923800     0.00036500
C     -5.24824500     0.10955700     0.00084100
C     -4.01240400     0.79449200     0.00242300
C     -2.84447300     0.09973200     0.00209200
C     -2.77076300    -1.31949800     0.00095700
C     -1.40615100    -1.90286500     0.00025200
C     -0.14630800    -1.14433600     0.00036100
B      0.20240900     0.39245000     0.00222200
C      1.64652100     0.82440000     0.00158000
H      3.73871900     0.21641400    -0.00101700
H      3.21295700    -2.20123000    -0.00364300
H      1.87013300    -3.82658800    -0.00429100
H     -0.03191100    -5.07107800    -0.00378800
H     -1.47899700    -6.04261500    -0.00129600
H     -3.40872500    -7.50757700     0.00221200
H     -5.72197300    -6.48556800     0.00658600
H     -6.78792800    -2.93040600    -0.00709000
H     -5.98751100    -4.13618600     0.00667200
H     -8.71169200    -1.60541500    -0.00748100
H     -8.59266600     0.91029800    -0.00275700
H     -6.32563600     1.97651100     0.00189600
H     -4.00473300     1.88726200     0.00340700
H     -0.56357300     1.31666500     0.00429300
H     -1.91685900     0.64731900     0.00274900
H      1.91345100     1.88720800     0.00281800
