036
BNPAH_000379_PAH20   C20_H14_N01_B01  -849.61356679     0.00000000    16.49188000  4443.90581133     7.08181469   192.70599333 18593.30191460    30.43771104     0.04850558     1.31990406   127.35138299    -4.04100000    -0.14850401   -93.18767452  -389.89723018    -3.13570000    -0.11523485   -72.31096040  -302.54905832     0.90530000     0.03326916    20.87671412    87.34817186
N      2.03873100     0.51093800     0.00000900
C      2.18772300    -0.84602000     0.00002200
C      1.09184900    -1.66720800     0.00002000
C     -0.27126000    -1.19898500     0.00000300
C     -0.34042600     0.26299800    -0.00000600
C     -1.59677500     0.92288400    -0.00001500
C     -2.72886800     0.17190600    -0.00001300
C     -2.74016600    -1.26157600    -0.00000500
C     -1.48046900    -1.98972400    -0.00000200
C     -1.55762200    -3.46777200    -0.00000500
C     -0.43869900    -4.34689400    -0.00001800
C     -0.53128700    -5.72889100    -0.00001900
C     -1.79621800    -6.33209000    -0.00000700
C     -2.91403100    -5.52444100     0.00000200
C     -2.85564900    -4.09990100     0.00000100
C     -4.09225800    -3.34264100     0.00000500
C     -5.35442000    -3.98818900     0.00001100
C     -6.57185100    -3.31744800     0.00001200
B     -6.61228400    -1.79516400     0.00000600
C     -5.25637900    -1.15101100    -0.00000000
C     -4.04693400    -1.89331700    -0.00000100
C      0.80495600     1.05259800    -0.00000500
H      2.85723200     1.11314200     0.00001000
H      3.20869800    -1.22564400     0.00003600
H      0.57264300    -3.97621900    -0.00003000
H     -1.63799400     2.01433100    -0.00002200
H     -3.68606400     0.68414400    -0.00001800
H      1.34089700    -2.71531800     0.00003500
H      0.38127400    -6.32945400    -0.00002900
H     -1.90216600    -7.41959700    -0.00000700
H     -3.88838600    -6.00651700     0.00000800
H     -5.37497500    -5.07985800     0.00001500
H     -7.46563600    -3.95557900     0.00001700
H     -7.64323200    -1.15425800     0.00000600
H     -5.19007700    -0.06054100    -0.00000400
H      0.74396000     2.14130600    -0.00001300
