042
BNPAH_000361_PAH70   C24_H16_N01_B01 -1003.19152553     0.00500000     8.11333000  5264.45112505     8.38943688   228.28820557 22026.46350721    30.60727398     0.04877580     1.32725701   128.06083433    -4.53620000    -0.16670228  -104.60725789  -437.67676702    -2.81780000    -0.10355224   -64.98001219  -271.87637100     1.71840000     0.06315004    39.62724570   165.80039603
C      2.73467400    -0.50279000     0.00064500
C      2.60380300    -1.88221000     0.00027900
C      1.32732200    -2.49427900     0.00007600
C      1.20781600    -3.92894200    -0.00029800
C     -0.01072100    -4.53991200    -0.00048600
C     -1.21833900    -3.76236600    -0.00033300
C     -2.48259800    -4.36303500    -0.00044300
C     -3.66478300    -3.61826400    -0.00028100
C     -4.91823100    -4.30140000    -0.00019000
C     -6.05799100    -3.58906600     0.00014600
N     -6.07296600    -2.18923400     0.00025600
C     -7.35285100    -1.65760700     0.00069300
C     -7.54603200    -0.30693300     0.00079700
C     -6.46664000     0.58899000     0.00029600
B     -6.77071800     2.09778900     0.00026200
C     -5.57370500     3.00010800    -0.00053400
C     -4.31295000     2.39863100    -0.00122500
C     -4.07327500     1.01281700    -0.00112700
C     -5.10389000     0.04237900    -0.00028100
C     -4.91330400    -1.40904500    -0.00005500
C     -3.64629900    -2.17280200    -0.00010200
C     -2.35846600    -1.59902100     0.00013900
C     -1.15887800    -2.33185400     0.00001900
C      0.15154500    -1.68023100     0.00024800
C      0.31905500    -0.27520600     0.00062400
C      1.58059200     0.30376200     0.00082000
H      3.72549100    -0.04287700     0.00079900
H      3.49074300    -2.52124600     0.00014200
H      2.12530200    -4.52309500    -0.00041600
H     -0.09057300    -5.62973300    -0.00074800
H     -2.55581300    -5.45377400    -0.00061100
H     -4.95656000    -5.39132900    -0.00028700
H     -7.04624900    -4.04380500     0.00033700
H     -8.15452300    -2.39292800     0.00096000
H     -8.56670500     0.08120800     0.00118400
H     -7.92852200     2.46050200     0.00080300
H     -5.60479700     4.09569400    -0.00070100
H     -3.41247000     3.02744000    -0.00193000
H     -2.25586600    -0.52896200     0.00053700
H     -3.02724000     0.75028000    -0.00190100
H     -0.55268300     0.38039100     0.00077400
H      1.67484000     1.39198800     0.00111100
