032
BNPAH_000370_PAH21   C18_H12_N01_B01  -772.31860305     0.00000000     3.91957000  4029.45206051     6.42134060   174.73357781 16859.22742117    30.52615197     0.04864652     1.32373923   127.72141984    -4.97920000    -0.18298223  -114.82308066  -480.41976949    -2.60670000    -0.09579446   -60.11193050  -251.50831722     2.37250000     0.08718777    54.71115016   228.91145226
C      5.57772200    -1.96427100    -0.00000000
C      4.36227700    -2.62276400    -0.00000000
C      3.13312400    -1.90684200    -0.00000000
C      3.16565200    -0.46881500     0.00000000
C      4.42736000     0.17316100     0.00000000
C      5.60847900    -0.55273400     0.00000000
C      1.89039400     0.23096500    -0.00000000
C      1.78967600     1.64313100    -0.00000000
N      0.61134900     2.30536200    -0.00000000
C     -0.63198800     1.70527100    -0.00000000
C     -1.86598000     2.38765900    -0.00000000
C     -3.04637800     1.63327200     0.00000000
C     -3.10382700     0.21034100     0.00000000
C     -1.93965100    -0.56495100     0.00000000
C     -1.83353400    -2.00861100     0.00000000
C     -0.61542800    -2.64710500     0.00000000
C      0.66864500    -1.95701000    -0.00000000
C      1.89026600    -2.61554900    -0.00000000
C      0.68243600    -0.51735000    -0.00000000
B     -0.63119000     0.19688000    -0.00000000
H      6.51163200    -2.53108200    -0.00000000
H      4.32777200    -3.71547400    -0.00000000
H      4.48218500     1.26382900     0.00000000
H      6.56735000    -0.02878800     0.00000000
H      2.66999000     2.28519600    -0.00000000
H      0.66716900     3.32428800    -0.00000000
H     -1.93159900     3.48283000    -0.00000000
H     -3.99498300     2.17828500     0.00000000
H     -4.09877700    -0.25299300     0.00000000
H     -2.74104500    -2.62519900     0.00000000
H     -0.58832000    -3.74100300     0.00000000
H      1.92770300    -3.70976000    -0.00000000
