042
BNPAH_000252_PAH58   C24_H16_N01_B01 -1003.18473990     0.00000000    15.20664000  5260.19307873     8.38265125   228.10355920 22008.64784141    30.58251790     0.04873634     1.32618348   127.95725489    -4.09590000    -0.15052155   -94.45369860  -395.19427495    -3.26680000    -0.12005269   -75.33419825  -315.19828546     0.82910000     0.03046886    19.11950036    79.99598949
C      3.00151300     2.35379600    -0.00000700
N      2.69589100     1.04187500     0.00000200
C      1.41945000     0.51323600     0.00000400
C      0.27219100     1.41861000    -0.00000300
C      0.63782000     2.78001700    -0.00001400
C      1.96238200     3.25455200    -0.00001600
C     -1.09704100     0.84175100     0.00000100
C     -2.36330500     1.54934500     0.00000300
C     -2.48627300     2.98754100     0.00001100
C     -3.66759200     3.68741000     0.00001100
B     -5.00961000     2.95385000     0.00000300
C     -4.90321600     1.42837400    -0.00000200
C     -6.14299800     0.69063300    -0.00000800
C     -7.36813700     1.30635000    -0.00000900
C     -7.55496800     2.73993200    -0.00000400
C     -8.85822700     3.29289000    -0.00000500
C     -9.04758000     4.67036900    -0.00000000
C     -7.93653900     5.53430800     0.00000600
C     -6.64988100     5.00088100     0.00000800
C     -6.41591200     3.60653500     0.00000200
C     -3.62677900     0.78820000    -0.00000100
C     -3.55631800    -0.63787300    -0.00000200
C     -2.37332900    -1.31035000     0.00000200
C     -1.13325600    -0.61119800     0.00000400
C      0.02671900    -1.40733400     0.00000800
C      1.30263800    -0.87590700     0.00000900
H      4.05909600     2.61791500    -0.00000700
H      3.45475400     0.36414400     0.00000700
H     -1.59246900     3.59363400     0.00001900
H      2.16269300     4.32544600    -0.00002500
H     -0.11961000     3.54882500    -0.00002400
H     -3.56755100     4.78069900     0.00001800
H     -6.15255000    -0.40413800    -0.00001200
H     -8.27014500     0.68568800    -0.00001400
H     -9.72286000     2.62171500    -0.00001000
H    -10.06057100     5.08275400    -0.00000100
H     -8.08660700     6.61754000     0.00001100
H     -5.79312000     5.68220400     0.00001300
H     -4.48342100    -1.20930100    -0.00000400
H     -2.34983800    -2.40291400     0.00000300
H     -0.10362300    -2.49214600     0.00001100
H      2.19244000    -1.50986900     0.00001300
