036
BNPAH_000172_PAH18   C20_H14_N01_B01  -849.67934402     0.00000000     3.92822000  4485.18165575     7.14759194   194.49588333 18766.00004766    30.72042230     0.04895611     1.33216358   128.53424690    -5.07720000    -0.18658366  -117.08301437  -489.87533211    -2.09440000    -0.07696778   -48.29801176  -202.07888119     2.98280000     0.10961588    68.78500261   287.79645092
C     -2.18479400    -3.62894000     0.00000000
C     -2.25116500    -2.26465900     0.00000000
C     -1.08200000    -1.42561500     0.00000000
N      0.16861600    -2.09486700    -0.00000000
C      0.21845600    -3.48425300    -0.00000000
C     -0.90082200    -4.25745600    -0.00000000
C      1.36466800    -1.39852700    -0.00000000
C      1.45459500    -0.02760600    -0.00000000
B      0.14136200     0.78662800    -0.00000000
C      0.26991900     2.32601700    -0.00000000
C      1.51296900     2.88096700    -0.00000000
C      2.75374800     2.11344200    -0.00000000
C      3.96986500     2.79562900    -0.00000000
C      5.21631900     2.12949000    -0.00000000
C      6.46172300     2.82263100     0.00000000
C      7.65506300     2.13058400     0.00000000
C      7.66069800     0.70957400     0.00000000
C      6.47260900     0.00856000     0.00000000
C      5.22146800     0.69165700    -0.00000000
C      3.98321100     0.00720600    -0.00000000
C      2.75493800     0.66476100    -0.00000000
C     -1.12355600    -0.03818600     0.00000000
H     -3.09329700    -4.23410700     0.00000000
H     -3.21195200    -1.74728700     0.00000000
H      1.22594800    -3.90064800    -0.00000000
H     -0.79700200    -5.34293200    -0.00000000
H      2.23027400    -2.06545700    -0.00000000
H     -0.59128800     3.00473200    -0.00000000
H      1.64465300     3.97053300    -0.00000000
H      3.95999200     3.88973400     0.00000000
H      6.45512700     3.91594700     0.00000000
H      8.60341500     2.67353800     0.00000000
H      8.61315600     0.17384500     0.00000000
H      6.47571000    -1.08507800    -0.00000000
H      4.01943300    -1.08537700    -0.00000000
H     -2.13358900     0.38556100     0.00000000
