042
BNPAH_000371_PAH70   C24_H16_N01_B01 -1003.20503007     0.04900000     9.59598000  5272.92535551     8.40294143   228.65568298 22061.91968745    30.65654276     0.04885431     1.32939351   128.26697491    -4.45350000    -0.16366311  -102.70015057  -429.69742999    -3.15310000    -0.11587429   -72.71221394  -304.22790311     1.30040000     0.04778882    29.98793663   125.46952688
C      2.51674400    -0.33245400    -0.00700900
C      2.47098800    -1.71567200    -0.00287200
C      1.23482500    -2.40900000    -0.00063400
C      1.19214300    -3.84189700     0.00322600
C     -0.00073200    -4.51070600     0.00490000
C     -1.24145500    -3.79654200     0.00339000
C     -2.50176400    -4.43730700     0.00409700
C     -3.70263800    -3.73459000     0.00248300
C     -4.95904400    -4.42003600     0.00122000
C     -6.10802300    -3.69570900    -0.00202700
C     -6.11112400    -2.25659800    -0.00252900
C     -7.36064400    -1.62140100    -0.00672000
C     -7.43799100    -0.23269700    -0.00751200
C     -6.30234500     0.58715200    -0.00245000
B     -6.52299100     2.12061300    -0.00209800
C     -5.28118600     2.97883500     0.00563800
C     -4.06383200     2.31831600     0.01259100
C     -3.90716500     0.90617200     0.01155600
C     -4.97271100    -0.01770900     0.00326100
C     -4.87856000    -1.49502400     0.00097700
C     -3.68947500    -2.28579800     0.00151800
N     -2.42998700    -1.72623300    -0.00032800
C     -1.22990400    -2.38147900     0.00020800
C      0.01549500    -1.65358700    -0.00248600
C      0.09400200    -0.23683300    -0.00704200
C      1.31726100     0.41153600    -0.00926100
H      3.47854600     0.18512800    -0.00875000
H      3.39570700    -2.29805100    -0.00136100
H      2.13645800    -4.39084500     0.00446700
H     -0.03071800    -5.60257700     0.00738100
H     -2.53631800    -5.52983400     0.00541100
H     -4.96465100    -5.51183700     0.00179800
H     -7.07843800    -4.19774000    -0.00420500
H     -8.26396800    -2.23607700    -0.00975800
H     -8.41802800     0.25269500    -0.01128200
H     -7.65794900     2.54790100    -0.00738600
H     -5.26423300     4.07438200     0.00720300
H     -3.12673600     2.89192800     0.01980600
H     -2.40818600    -0.71305000    -0.00379700
H     -2.85348300     0.63139500     0.02075600
H     -0.81237600     0.37237000    -0.00952300
H      1.35102800     1.50289100    -0.01285500
