042
BNPAH_000426_PAH52   C24_H16_N01_B01 -1003.17356286     0.00100000    14.81089000  5253.17938074     8.37147421   227.79941647 21979.30252902    30.54174059     0.04867136     1.32441521   127.78664263    -4.35770000    -0.16014252  -100.49095007  -420.45413510    -3.06320000    -0.11257052   -70.63907067  -295.55387169     1.29450000     0.04757200    29.85187940   124.90026342
N     -2.51586100    -0.49042900    -0.00012600
C     -2.65065700     0.88364300    -0.00029600
C     -1.54171400     1.67758600    -0.00030300
C     -0.22026300     1.10717200    -0.00013100
C      0.93200500     1.87889100    -0.00012600
C      2.27272900     1.37033800     0.00005200
C      2.30918300    -0.10553700     0.00015800
C      3.56458000    -0.78148900     0.00023000
C      4.70796600    -0.05979100     0.00017000
C      4.75260400     1.38218600     0.00007900
C      3.49879800     2.14337200     0.00008500
C      3.57806400     3.64541100     0.00011900
C      2.46840000     4.53833200     0.00031200
C      2.58725700     5.92546700     0.00031900
C      3.84319100     6.53724400     0.00014400
C      4.95270800     5.70622200    -0.00000400
C      4.86375800     4.29429100    -0.00000200
B      6.18451500     3.49633400    -0.00009100
C      7.59906900     4.09616900    -0.00020900
C      8.67329400     3.23983500    -0.00024000
C      8.50703300     1.81399700    -0.00016300
C      7.27169200     1.20525700    -0.00005500
C      6.05482700     1.96927400    -0.00001300
C      1.16406600    -0.89414500     0.00016900
C     -0.13455100    -0.34042700     0.00003600
C     -1.30082800    -1.09631300     0.00003300
H     -3.35227600    -1.06533300    -0.00012500
H     -3.67140900     1.26404100    -0.00041800
H     -1.66677700     2.76165800    -0.00043800
H      1.44588000     4.20066000     0.00050100
H      3.58014300    -1.87413200     0.00030300
H      5.65389600    -0.59574000     0.00019500
H      0.73808800     2.93691300    -0.00030100
H      1.67468000     6.52823900     0.00047200
H      3.94510300     7.62542000     0.00014800
H      5.95010500     6.15139300    -0.00011200
H      7.81894100     5.17083700    -0.00026600
H      9.70171100     3.62271600    -0.00032300
H      9.40353700     1.18652900    -0.00019300
H      7.27356900     0.11162900    -0.00000800
H      1.28495000    -1.98069600     0.00026700
H     -1.29817500    -2.18705400     0.00015100
