042
BNPAH_000236_PAH70   C24_H16_N01_B01 -1003.21061165     0.00600000     6.79009000  5276.42784668     8.40852300   228.80756537 22076.57411051    30.67690609     0.04888676     1.33027654   128.35217508    -4.41430000    -0.16222253  -101.79617709  -425.91520494    -2.89610000    -0.10642971   -66.78565310  -279.43117256     1.51820000     0.05579282    35.01052399   146.48403238
C      2.74171300    -0.49175200    -0.00080200
C      2.60419000    -1.87247700    -0.00031400
C      1.32858300    -2.48317200    -0.00006700
C      1.20497500    -3.92131000     0.00042700
C     -0.01301700    -4.52963000     0.00065200
C     -1.22803000    -3.75576300     0.00042900
C     -2.48293800    -4.35508300     0.00055000
C     -3.70797400    -3.64222700     0.00031300
C     -4.91427600    -4.39810200     0.00020300
B     -6.21434100    -3.71413600    -0.00027700
C     -6.10657400    -2.18618200    -0.00037200
N     -7.32417500    -1.53932600    -0.00086100
C     -7.52482700    -0.23548400    -0.00096200
C     -6.40991300     0.62072600    -0.00032100
C     -6.65931900     2.02109300    -0.00021700
C     -5.62249100     2.92540400     0.00066400
C     -4.30672500     2.41709200     0.00154800
C     -4.04635300     1.05719500     0.00141400
C     -5.07092200     0.06041000     0.00032900
C     -4.90216900    -1.39746000     0.00001100
C     -3.65674000    -2.17452700     0.00009200
C     -2.36006400    -1.60603900    -0.00019400
C     -1.15916800    -2.32107400    -0.00003100
C      0.15261300    -1.66974600    -0.00031500
C      0.32706700    -0.26601900    -0.00081500
C      1.58939500     0.31472800    -0.00105600
H      3.73410900    -0.03478100    -0.00099000
H      3.49002300    -2.51368300    -0.00011500
H      2.12255200    -4.51592700     0.00059900
H     -0.09239100    -5.61987400     0.00099600
H     -2.54171900    -5.44707200     0.00077400
H     -4.77908000    -5.48554800     0.00037400
H     -7.32804400    -4.20605400    -0.00056300
H     -8.12330500    -2.17601200    -0.00118600
H     -8.55277500     0.12962900    -0.00142100
H     -7.69865600     2.35971400    -0.00079300
H     -5.80864400     4.00085700     0.00078000
H     -3.46078900     3.10881700     0.00239900
H     -2.24986500    -0.53500700    -0.00070900
H     -3.00228900     0.78389500     0.00231100
H     -0.54500500     0.39042400    -0.00103700
H      1.68389200     1.40351400    -0.00144700
