036
BNPAH_000335_PAH19   C20_H14_N01_B01  -849.62925234     0.00000000    15.38361000  4453.74864328     7.09750024   193.13281891 18634.48432348    30.50512769     0.04861302     1.32282753   127.63345425    -4.38290000    -0.16106861  -101.07207588  -422.88556549    -2.99740000    -0.11015242   -69.12168661  -289.20513678     1.38550000     0.05091619    31.95038927   133.68042871
C      2.48858800     0.06091100     0.00000200
C      2.55851300    -1.36828300     0.00000100
C      1.40037800    -2.09473000     0.00000000
C      0.11137900    -1.46540200    -0.00000000
C     -1.08873400    -2.16077000    -0.00000100
C     -2.36080000    -1.52980000    -0.00000100
C     -2.33104400    -0.07517000    -0.00000100
C     -3.57369800     0.64029900    -0.00000100
C     -4.75584300    -0.04027900    -0.00000100
C     -4.84361200    -1.48196600    -0.00000100
C     -3.60103700    -2.22183000    -0.00000100
C     -3.66836400    -3.65456300    -0.00000200
C     -4.87032500    -4.30088100    -0.00000100
C     -6.13422500    -3.61022000    -0.00000000
C     -7.33941200    -4.31426500     0.00000100
B     -8.67518900    -3.59104900     0.00000200
C     -8.57565300    -2.05425200     0.00000100
C     -7.35057100    -1.43195900     0.00000000
C     -6.10011000    -2.14890900    -0.00000000
C     -1.12591100     0.59514900    -0.00000100
N      0.08937400    -0.05360700    -0.00000000
C      1.27123200     0.67228600     0.00000100
H      3.39082400     0.67275200     0.00000300
H      3.52852600    -1.86802400     0.00000200
H      1.41576800    -3.18555700    -0.00000000
H     -1.01332300    -3.24721700    -0.00000100
H     -3.55985000     1.73271900    -0.00000100
H     -5.67920100     0.53752900    -0.00000100
H     -2.74861300    -4.24207200    -0.00000200
H     -4.89656800    -5.39432900    -0.00000100
H     -7.24552000    -5.40830800     0.00000100
H     -9.73888200    -4.17230800     0.00000300
H     -9.45425900    -1.39654600     0.00000200
H     -7.31285600    -0.33835300     0.00000000
H     -1.07138500     1.68424800    -0.00000000
H      1.14312100     1.75477000     0.00000100
