042
BNPAH_000239_PAH61   C24_H16_N01_B01 -1003.27061142     6.09000000     2.84905000  5314.07828054     8.46852279   230.44024269 22234.10352578    30.89580396     0.04923560     1.33976885   129.26804377    -5.17070000    -0.19001972  -119.23917561  -498.89671074    -2.05880000    -0.07565951   -47.47705625  -198.64400334     3.11190000     0.11436022    71.76211936   300.25270740
C     -2.73281600     3.81493200    -0.61392900
C     -1.38726900     3.74437600    -0.33170600
C     -3.56222300     2.66865400    -0.51982600
C     -0.75614100     2.49117200    -0.11738600
C     -2.97378100     1.40811500    -0.19610200
C     -1.53274800     1.30599300    -0.22094500
C     -4.98765400     2.83437900    -0.74613400
C     -3.89054100     0.34527400     0.22292000
C     -5.91387300     1.84226200    -0.59787200
B     -5.39498200     0.52743900    -0.01668500
C      0.66312200     2.40279800     0.23572400
C     -0.81006500     0.04927400    -0.46520900
C      1.30378000     1.13321600     0.29989600
C      0.58403400    -0.04401600    -0.18460300
N     -6.24933000    -0.54734900     0.45004000
C     -3.50943100    -0.75655000     0.99698900
C     -5.78089000    -1.62266800     1.12821500
C     -4.43546500    -1.73321500     1.42680500
C     -1.42907600    -1.03967800    -1.13010400
C      1.25895500    -1.25666200    -0.46505900
C     -0.74135300    -2.20854500    -1.41695200
C      0.61116900    -2.33171500    -1.05397300
C      1.40621900     3.55161800     0.59915300
C      2.72036900     3.46090300     1.03562800
C      2.63685400     1.06355600     0.76579100
C      3.33966000     2.20350000     1.12977100
H      0.93222600     4.53317100     0.56874800
H      3.26269000     4.36538200     1.32125900
H      3.12699400     0.09268200     0.85095200
H      4.36716100     2.11984800     1.49165000
H     -3.19120900     4.77639100    -0.86061100
H     -0.79536300     4.65981500    -0.32611300
H     -5.29068900     3.83960100    -1.06480000
H     -6.96222300     2.07277100    -0.82185200
H     -7.25704700    -0.50246000     0.31939000
H     -6.50621100    -2.37507500     1.44695800
H     -4.09551100    -2.58850800     2.01274400
H     -2.46907200    -0.88811500     1.30738800
H     -2.46924800    -0.94537400    -1.43977000
H     -1.24900500    -3.02280400    -1.93968200
H      1.16152100    -3.25043700    -1.27051700
H      2.32584200    -1.33739300    -0.25306000
