042
BNPAH_000341_PAH58   C24_H16_N01_B01 -1003.20927699     0.00100000     7.20546000  5275.59033712     8.40718835   228.77124752 22073.06997051    30.67203684     0.04887900     1.33006539   128.33180214    -4.53290000    -0.16658100  -104.53115808  -437.35836542    -2.31740000    -0.08516288   -53.44051396  -223.59511042     2.21550000     0.08141812    51.09064412   213.76325500
C      2.93227400     2.49114400     0.00006600
C      2.70568700     1.12987300    -0.00002800
C      1.39487300     0.58741600    -0.00004000
C      0.22474700     1.43621600     0.00002500
C      0.52471700     2.83046200     0.00014600
C      1.81477400     3.34132600     0.00016300
C     -1.12012300     0.81085200    -0.00001100
C     -2.42509600     1.48310300    -0.00002400
C     -2.60104600     2.91161700    -0.00010300
C     -3.82472900     3.51682100    -0.00010500
C     -5.05548100     2.79900400    -0.00002900
C     -4.98477600     1.35248100     0.00002900
C     -6.16885400     0.58144200     0.00009200
B     -7.53289800     1.19373900     0.00010500
C     -7.54940700     2.73372300     0.00004100
C     -8.74107800     3.44351100     0.00004300
N     -8.77814500     4.79486100    -0.00001400
C     -7.62364900     5.54413100    -0.00007700
C     -6.40928800     4.91372500    -0.00008400
C     -6.30442300     3.48583800    -0.00002500
C     -3.64545300     0.72291000     0.00001500
C     -3.57173600    -0.69321500     0.00002400
C     -2.36724100    -1.33800200    -0.00001400
C     -1.14367300    -0.62220600    -0.00003600
C      0.04850900    -1.41437300    -0.00008500
C      1.27670400    -0.83612100    -0.00010200
H      3.94730800     2.89473000     0.00007900
H      3.54445400     0.42858600    -0.00008800
H     -1.75591200     3.57896000    -0.00018500
H      1.94968100     4.42587300     0.00025800
H     -0.25623100     3.57462900     0.00025000
H     -3.83814000     4.60785300    -0.00017000
H     -6.06248600    -0.50466700     0.00013600
H     -8.57177100     0.56904600     0.00016000
H     -9.70905900     2.93772100     0.00009100
H     -9.67579200     5.27067100    -0.00000900
H     -7.74749600     6.62636800    -0.00012000
H     -5.52175000     5.54554700    -0.00013500
H     -4.48338400    -1.28585300     0.00004500
H     -2.32695900    -2.42998500    -0.00002500
H     -0.06202300    -2.50148900    -0.00011400
H      2.18863000    -1.43827600    -0.00014400
