030
BNPAH_000099_PAH07   C16_H12_N01_B01  -696.18411052     0.00000000     1.23018000  3716.54722292     5.92269500   161.16473993 15550.03358070    30.97122686     0.04935579     1.34303950   129.58361318    -5.52030000    -0.20286728  -127.30114319  -532.62798311    -1.73210000    -0.06365350   -39.94317521  -167.12224509     3.78820000     0.13921378    87.35796798   365.50573803
C      4.68638700    -0.02097000     0.00003700
C      3.84316700     1.07892000    -0.00033000
C      2.43525200     0.94167400    -0.00004400
C      1.60340000     2.12024600    -0.00045900
C      0.24400100     2.04344400    -0.00022300
B     -0.42791700     0.66884400     0.00051000
C     -1.95313000     0.41301100     0.00083800
C     -2.42980900    -0.93000400     0.00154000
C     -3.81955100    -1.19414200     0.00185000
C     -4.73047700    -0.14599800     0.00146900
C     -4.27550500     1.18675900     0.00077400
C     -2.91043900     1.45408800     0.00046800
C     -1.45889400    -1.99417000     0.00191700
C     -0.11760400    -1.77470400     0.00162400
N      0.45771400    -0.50431000     0.00093300
C      1.86504700    -0.36758600     0.00064700
C      2.74136100    -1.47645600     0.00101000
C      4.12126000    -1.30607100     0.00071200
H      5.77062100     0.10865700    -0.00019600
H      4.25690000     2.09089900    -0.00086000
H      2.12685000     3.08349700    -0.00097900
H     -0.32568900     2.97796900    -0.00057000
H     -4.17015200    -2.23003800     0.00238900
H     -5.80345600    -0.35500900     0.00170900
H     -4.99688200     2.00776400     0.00047600
H     -2.57206200     2.49358600    -0.00007300
H     -1.80390500    -3.03063300     0.00246400
H      0.56067500    -2.62345700     0.00194100
H      2.35771700    -2.49487000     0.00152900
H      4.76465800    -2.18911000     0.00100800
