042
BNPAH_000249_PAH64   C24_H16_N01_B01 -1003.18073707     5.26800000    16.10471000  5257.68126390     8.37864842   227.99463660 21998.13840816    30.56791433     0.04871307     1.32555021   127.89615356    -4.07180000    -0.14963589   -93.89793940  -392.86897843    -3.08370000    -0.11332389   -71.11181190  -297.53182101     0.98810000     0.03631201    22.78612749    95.33715742
C    -13.07856700    -7.81013300     9.59166200
C    -12.48627000    -7.22102700     8.45551400
C    -13.60597800    -6.98972800    10.57733600
C    -12.37509500    -5.84227400     8.36512500
C    -13.54063900    -5.57625200    10.49371100
C    -12.83318600    -4.96759800     9.39395000
C    -14.24684100    -4.78001500    11.47100900
C    -12.73473100    -3.51800700     9.32217000
C    -14.39714000    -3.42551100    11.34981900
B    -13.67773500    -2.69080800    10.20399400
C    -11.85311900    -2.80346700     8.43855400
C    -13.85906300    -1.21381100     9.83319800
C    -13.18398100    -0.69572700     8.74748700
C    -12.17440500    -1.43463800     8.06312800
C    -11.44635500    -0.81070200     7.01599900
C    -10.56254900    -3.27434800     7.99713500
C     -9.84728400    -2.61834200     6.92505000
C    -10.36021500    -1.39621400     6.40519600
C     -9.89201600    -4.32799000     8.70467000
C     -8.68681100    -4.84555000     8.31148200
C     -8.63572700    -3.20239800     6.44721900
C     -8.05260500    -4.33864500     7.13767400
C     -6.86943100    -4.88782900     6.65402200
C     -7.93750400    -2.72981800     5.29510600
N     -6.26469000    -4.38734800     5.55189800
C     -6.77969500    -3.32120800     4.86192000
H     -6.38196000    -5.73668800     7.13502300
H     -8.32556800    -1.88862100     4.72262100
H     -5.40503100    -4.81866700     5.22391600
H     -6.22380300    -2.99770400     3.98292900
H    -14.12116800    -7.43066400    11.43632100
H    -11.94694600    -5.40683800     7.45979500
H    -13.15769100    -8.89726300     9.67427700
H    -12.13069800    -7.84979900     7.63416000
H    -14.72308000    -5.33814600    12.28805100
H    -15.02458900    -2.91472900    12.09188100
H    -14.56516100    -0.54938800    10.34844800
H    -13.35865300     0.32963200     8.39691600
H    -11.77263500     0.18293100     6.69477300
H     -9.85235700    -0.87740500     5.59124200
H    -10.36818900    -4.71021700     9.60703100
H     -8.20467800    -5.63975800     8.88521800
