036
BNPAH_000001_PAH77   C22_H12_N01_B01  -924.77495671     0.00000000     1.33622000  4772.83733107     7.60600043   206.96981393 19969.55139320    30.59511110     0.04875641     1.32672958   128.00994484    -5.22820000    -0.19213281  -120.56515712  -504.44461738    -2.07030000    -0.07608212   -47.74225255  -199.75358467     3.15790000     0.11605069    72.82290457   304.69103271
B     -3.50024200     2.90963500    -0.00000000
N     -4.74661500     2.22140000    -0.00000000
C     -2.24655600     2.02643300     0.00000000
C     -4.88888300     0.84510200     0.00000000
C     -3.73150100     0.02715200     0.00000000
C     -2.41150700     0.61422000     0.00000000
C     -0.92804100     2.55386700     0.00000000
C      0.18361700     1.73339500     0.00000000
C     -1.26861600    -0.24683000     0.00000000
C      0.04205300     0.32027700     0.00000000
C      1.17242400    -0.55596300     0.00000000
C     -1.42888500    -1.66890200     0.00000000
C     -0.28333000    -2.51602300     0.00000000
C      1.01523100    -1.91968600    -0.00000000
C     -3.89134900    -1.39310400     0.00000000
C     -2.73868000    -2.24210000     0.00000000
C     -6.17551500     0.25467500     0.00000000
C     -6.32385400    -1.11832100     0.00000000
C     -5.19489700    -1.97617400     0.00000000
C     -5.32009800    -3.40021700     0.00000000
C     -4.21314600    -4.21140800     0.00000000
C     -2.89483500    -3.65875700     0.00000000
C     -1.73132600    -4.47960000    -0.00000000
C     -0.46938700    -3.92727400    -0.00000000
H      0.41282800    -4.57286500    -0.00000000
H     -1.85595100    -5.56558300    -0.00000000
H     -3.50415600     4.11367900    -0.00000000
H     -5.62303200     2.73660100    -0.00000000
H     -0.79920700     3.63967500    -0.00000000
H      1.18981400     2.16101200     0.00000000
H      1.89061300    -2.57463000    -0.00000000
H      2.17327300    -0.11656300    -0.00000000
H     -6.32280200    -3.83572300     0.00000000
H     -4.32524800    -5.29865500    -0.00000000
H     -7.05533300     0.90430500    -0.00000000
H     -7.32439300    -1.55804100    -0.00000000
