042
BNPAH_000182_PAH72   C24_H16_N01_B01 -1003.25461350     0.00000000     4.66688000  5304.03943366     8.45252487   230.00491709 22192.10099043    30.83743857     0.04914259     1.33723789   129.02384298    -4.53550000    -0.16667655  -104.59111551  -437.60922729    -2.69240000    -0.09894388   -62.08821947  -259.77711025     1.84310000     0.06773268    42.50289604   177.83211704
C      2.74981400     0.28280500     0.00000200
C      2.76839300    -1.14558500     0.00000200
C      1.59585300    -1.86650500     0.00000100
C      0.33697300    -1.19395000     0.00000000
C     -0.89878700    -1.85835200    -0.00000000
C     -2.12521700    -1.18786300    -0.00000100
N     -2.10507900     0.21944400    -0.00000100
B     -3.36238000     1.03506000    -0.00000200
C     -4.62728400     0.29293500    -0.00000200
C     -4.64565200    -1.13000500    -0.00000100
C     -3.40743300    -1.87670500    -0.00000100
C     -3.47541500    -3.27934500    -0.00000200
C     -4.68690900    -3.98247000    -0.00000200
C     -4.70578000    -5.42027300    -0.00000200
C     -5.87987700    -6.11259700    -0.00000200
C     -7.14854100    -5.42817700    -0.00000000
C     -8.36174600    -6.15704800     0.00000100
C     -9.58789300    -5.50909500     0.00000200
C     -9.63040500    -4.10233800     0.00000300
C     -8.45161000    -3.36750900     0.00000200
C     -7.18693100    -3.99954300     0.00000000
C     -5.92787000    -3.25047800    -0.00000100
C     -5.86193700    -1.85668100    -0.00000100
C     -0.91757500     0.87986300    -0.00000100
C      0.32116600     0.24589600     0.00000000
C      1.55798500     0.96621200     0.00000100
H      3.69502300     0.83014700     0.00000300
H      3.72869900    -1.66630400     0.00000300
H      1.61274000    -2.95907700     0.00000100
H     -0.89771400    -2.94708700    -0.00000000
H     -3.18692600     2.22673700    -0.00000200
H     -5.60196900     0.79129800    -0.00000200
H     -2.56210200    -3.87689400    -0.00000200
H     -3.74958500    -5.95097200    -0.00000300
H     -5.88119500    -7.20562900    -0.00000200
H     -8.31596800    -7.24955400     0.00000000
H    -10.51558900    -6.08648600     0.00000300
H    -10.59237900    -3.58423500     0.00000400
H     -8.51093800    -2.27809500     0.00000200
H     -6.78023400    -1.26706600    -0.00000000
H     -1.00319400     1.96685600    -0.00000100
H      1.53704100     2.05864400     0.00000100
