038
BNPAH_000238_PAH28   C22_H14_N01_B01  -925.84872159     0.00000000     5.69268000  4819.97718766     7.68112258   209.01399156 20166.78455317    30.50618473     0.04861470     1.32287336   127.63787691    -4.72500000    -0.17364055  -108.96108936  -455.89319787    -2.76700000    -0.10168538   -63.80853635  -266.97491609     1.95800000     0.07195517    45.15255301   188.91828178
C     -5.79096200    -2.34717000    -0.00000100
C     -5.88371200    -0.93630000    -0.00000000
C     -4.74088600    -0.15093300     0.00000000
C     -3.44844700    -0.72763900     0.00000000
C     -3.36649800    -2.15395800    -0.00000000
C     -4.54891300    -2.94811500    -0.00000100
C     -2.10042500    -2.76016200    -0.00000000
N     -0.96099300    -2.03162700     0.00000000
C      0.24635900    -2.75694500     0.00000100
C      1.44433800    -2.13954300     0.00000100
C      1.53681900    -0.70847400     0.00000000
C      2.76963900    -0.07659200     0.00000000
C      2.87280000     1.33409700    -0.00000000
C      4.14229600     1.97848800    -0.00000100
C      4.23402100     3.35470000    -0.00000100
C      3.05116200     4.13433800    -0.00000100
C      1.80712400     3.53199200    -0.00000000
C      1.66399800     2.11496400    -0.00000000
C      0.36259800     1.48246200     0.00000000
B     -0.96436200     2.27323200     0.00000100
C     -2.22634200     1.46598200     0.00000100
C     -2.22193200     0.06738900     0.00000000
C     -0.95169900    -0.63165900     0.00000000
C      0.30857100     0.05735200     0.00000000
H     -6.69783100    -2.95603800    -0.00000100
H     -6.86630100    -0.45884200    -0.00000000
H     -4.84150500     0.93413300     0.00000100
H     -4.45559800    -4.03723800    -0.00000100
H     -1.97481500    -3.84186500    -0.00000000
H      0.12019800    -3.83824900     0.00000100
H      2.35223400    -2.74595300     0.00000100
H      3.68152400    -0.68075400     0.00000000
H      5.04412100     1.35993800    -0.00000100
H      5.21131800     3.84347300    -0.00000100
H      3.12395000     5.22485500    -0.00000100
H      0.90393800     4.14115600     0.00000000
H     -1.00180800     3.48133200     0.00000100
H     -3.20624000     1.95099800     0.00000100
