038
BNPAH_000517_PAH47   C22_H14_N01_B01  -925.86758358     0.00000000     3.25282000  4831.81326944     7.69998457   209.52725264 20216.30671934    30.58109664     0.04873408     1.32612185   127.95130834    -4.85270000    -0.17833344  -111.90592134  -468.21437488    -2.29770000    -0.08443892   -52.98622117  -221.69434936     2.55500000     0.09389452    58.91970017   246.52002551
C      2.15585700     1.22789200     0.00000100
C      1.07556900     2.12342200    -0.00000100
C     -0.23099600     1.64251000    -0.00000100
C     -0.55754300     0.26221000    -0.00000000
C      0.57102800    -0.63558600     0.00000100
C      0.41216400    -2.07385500     0.00000100
C     -0.79927900    -2.69979100     0.00000000
C     -2.01236100    -1.93399100    -0.00000100
C     -3.24790100    -2.57723100    -0.00000100
C     -4.48416000    -1.92544000    -0.00000100
N     -4.56959200    -0.52138500    -0.00000100
C     -3.38820300     0.25766600    -0.00000100
C     -3.57755700     1.66930100    -0.00000100
C     -4.79338700     2.28610800    -0.00000000
C     -5.98131800     1.49738800     0.00000000
C     -5.85029000     0.07634400    -0.00000000
C     -7.03767800    -0.72148000     0.00000000
C     -6.91889300    -2.14940800    -0.00000000
C     -5.68134100    -2.70619200    -0.00000100
C     -8.29704800    -0.09061300     0.00000100
C     -8.41210800     1.29819000     0.00000100
C     -7.26519700     2.08387800     0.00000100
B     -1.98791700    -0.40341900    -0.00000100
C      1.89610300    -0.13391600     0.00000100
H      3.18451600     1.59710400     0.00000100
H      1.25549000     3.20162600    -0.00000100
H     -2.68228200     2.28083400    -0.00000100
H      1.32893500    -2.67135500     0.00000100
H     -0.84712800    -3.79490600     0.00000000
H     -3.30232900    -3.67182000    -0.00000100
H     -1.01759200     2.39548300    -0.00000200
H     -4.87486600     3.37499400    -0.00000000
H     -7.82225400    -2.76180300    -0.00000000
H     -5.54773800    -3.78907100    -0.00000100
H     -9.18844000    -0.72171800     0.00000100
H     -9.39909500     1.76608100     0.00000200
H     -7.33388600     3.17378000     0.00000100
H      2.72432500    -0.84856300     0.00000200
