042
BNPAH_000543_PAH56   C24_H16_N01_B01 -1003.20959529     3.15400000     9.75187000  5275.79007349     8.40750665   228.77990890 22073.90566748    30.67319810     0.04888085     1.33011575   128.33666085    -4.14520000    -0.15233329   -95.59058362  -399.95100186    -2.65510000    -0.09757313   -61.22806103  -256.17820734     1.49010000     0.05476017    34.36252259   143.77279453
C      1.18968300     0.33269800     0.28687900
C      2.46875800     0.24998400    -0.23230600
C      3.14042800    -0.99484200    -0.34381300
C      4.51286200    -1.04063600    -0.74422400
C      5.20286600    -2.21935200    -0.70776200
C      4.55124300    -3.45661700    -0.39444700
C      5.32243800    -4.65677800    -0.32075200
C      4.72070000    -5.85647600    -0.03038900
C      3.30336900    -5.98134800     0.05355200
C      2.49924800    -4.79343700    -0.09890700
C      1.10109100    -4.95172000    -0.28718500
C      0.43858400    -6.18533800    -0.21525900
C     -0.97343200    -6.21988800    -0.45051700
C     -1.71994300    -7.37257000    -0.36321200
C     -1.09200600    -8.60606200    -0.03285500
C     -1.81701800    -9.81708000     0.07979900
C     -1.18094500   -10.99956500     0.39368900
N      0.16679200   -10.97643100     0.59373300
C      0.91541900    -9.85658900     0.50323500
C      0.34262200    -8.61143300     0.18799400
C      1.13608500    -7.42064800     0.09023900
B      2.64797500    -7.35283000     0.21572400
C      3.14752600    -3.48660300    -0.15617100
C      2.46388900    -2.21173300     0.01450400
C      1.18106300    -2.07391600     0.61691000
C      0.56007300    -0.84191800     0.74874000
H      0.68811600     1.29953400     0.37529900
H      2.99985500     1.15493900    -0.54072300
H      5.01052500    -0.10758600    -1.02197700
H      6.27137200    -2.24496900    -0.93861300
H      6.40358700    -4.58868300    -0.47108000
H      5.32731500    -6.75938400     0.08549000
H      0.50146000    -4.08831400    -0.57361900
H     -1.47463400    -5.28009100    -0.70279300
H     -2.79770700    -7.35558900    -0.54186200
H     -2.89596900    -9.82213600    -0.08500700
H     -1.67844100   -11.96271600     0.49494900
H      0.63841300   -11.84734300     0.82467900
H      1.98463600    -9.96114400     0.68303500
H      3.34505500    -8.33350700     0.39911700
H      0.69133800    -2.95459000     1.02951100
H     -0.41896400    -0.78214200     1.23134400
