042
BNPAH_000419_PAH52   C24_H16_N01_B01 -1003.20096057     0.00000000     7.43691000  5270.37170446     8.39887193   228.54494619 22051.23521146    30.64169596     0.04883065     1.32874969   128.20485590    -4.58000000    -0.16831190  -105.61730990  -441.90282460    -2.50010000    -0.09187698   -57.65367608  -241.22298074     2.07990000     0.07643492    47.96363381   200.67984386
C     -2.56005500    -0.52393800    -0.00001100
C     -2.65894400     0.89626000    -0.00002800
C     -1.52093100     1.67315800    -0.00002900
C     -0.22584700     1.07151500    -0.00001300
C      0.95021400     1.85385400    -0.00001300
C      2.25476900     1.33569700     0.00000400
C      2.31409100    -0.11958300     0.00001500
C      3.58028600    -0.77995500     0.00002200
C      4.72176100    -0.05307900     0.00001500
C      4.74963700     1.38838300     0.00000600
C      3.50969500     2.15391500     0.00000600
C      3.57976700     3.61284900     0.00001000
C      2.48589600     4.54275100     0.00002800
C      2.63847900     5.92054300     0.00003000
C      3.89813600     6.57652800     0.00001400
C      5.05924800     5.83664400    -0.00000000
B      4.95681200     4.31422700    -0.00000100
C      6.20806700     3.41835000    -0.00000900
C      7.48629300     3.95760700    -0.00001800
N      8.59475200     3.18575400    -0.00002200
C      8.50506700     1.81726700    -0.00001600
C      7.27265800     1.22029500    -0.00000700
C      6.05924100     1.98513000    -0.00000300
C      1.16020000    -0.90903300     0.00001700
C     -0.13151000    -0.35955900     0.00000400
C     -1.32684200    -1.13842500     0.00000400
H     -3.47205200    -1.12620700    -0.00001100
H     -3.64474600     1.36747100    -0.00004000
H     -1.59517600     2.76406900    -0.00004200
H      1.44698700     4.24074900     0.00004600
H      3.60851100    -1.87207400     0.00003000
H      5.66234600    -0.59909700     0.00001900
H      0.77154900     2.91611300    -0.00002900
H      1.73088300     6.53197800     0.00004400
H      3.91164200     7.67323100     0.00001700
H      6.00634100     6.39350700    -0.00000900
H      7.65843900     5.03478800    -0.00002300
H      9.51128200     3.62461200    -0.00002900
H      9.44455400     1.26607300    -0.00002000
H      7.27055700     0.13277300    -0.00000300
H      1.27926900    -1.99634000     0.00002700
H     -1.24749400    -2.22883100     0.00001700
