042
BNPAH_000112_PAH35   C24_H16_N01_B01 -1003.18783007     5.19300000    10.87268000  5262.13218889     8.38574142   228.18764698 22016.76107832    30.59379180     0.04875431     1.32667237   128.00442489    -4.22880000    -0.15540553   -97.51844543  -408.01717569    -2.93240000    -0.10776371   -67.62275099  -282.93359014     1.29640000     0.04764182    29.89569444   125.08358555
C      0.00275600     0.69035400     0.03440200
C     -0.08883000    -0.72322400     0.04089200
C      0.03329300    -2.92777400    -1.16520500
C      0.10494400     2.89979000    -1.13531000
C     -0.12800200     0.73053500     2.55446400
C      0.11634900    -0.66921800     2.55513800
C     -0.16558300     1.42736100     1.26934500
C      0.17394800    -1.40725400     1.28904900
B     -0.19402000    -3.80072600    -2.42170000
C      0.38738200     3.71481800    -2.24941700
C     -0.39939700    -1.54337000    -1.13761300
C      0.34906700     1.50235500    -1.14505600
N     -0.37629100     3.47163000     0.03178400
C      0.50100900    -3.47529200     0.03279400
C     -0.40987100     2.78838900     1.20060300
C      0.49442200    -2.76880600     1.24671400
C     -0.98407100    -3.14351700    -3.53980200
C      0.98650500     3.15924200    -3.36909200
C     -1.17444600    -1.06812300    -2.19914000
C      1.02170500     0.98956700    -2.28023600
C     -1.45689100    -1.85023000    -3.34924500
C      1.33288500     1.79408500    -3.36645500
C     -0.26728500     1.40621600     3.78852400
C      0.22561100    -1.32957500     3.80273500
C     -0.16181900     0.73439000     4.99747100
C      0.08998000    -0.64785500     5.00293600
H      0.15610400     4.78275000    -2.20742800
H      0.19740800    -4.94859100    -2.44112500
H     -0.58522500     4.46464900     0.03298500
H      0.82459000    -4.52087300     0.03647300
H     -0.66680100     3.38137000     2.07677800
H      0.77609400    -3.29296500     2.16019600
H     -1.25071400    -3.63853500    -4.48119300
H      1.21363000     3.78612900    -4.23391200
H     -1.58965900    -0.05826000    -2.15073100
H      1.29098800    -0.06538800    -2.29813600
H     -2.08620000    -1.37580200    -4.11405200
H      1.85038000     1.36146500    -4.22489800
H     -0.27013000     1.28076200     5.93713100
H      0.17332100    -1.18818300     5.94863900
H      0.39971400    -2.40499100     3.82742200
H     -0.44685200     2.48269600     3.80845800
