036
BNPAH_000208_PAH24   C20_H14_N01_B01  -849.66206700     0.00000000     7.74802000  4474.34015800     7.13031491   194.02575150 18720.63922107    30.64616547     0.04883777     1.32894350   128.22355633    -4.68200000    -0.17206033  -107.96948579  -451.74432856    -3.04030000    -0.11172897   -70.11098412  -293.34435756     1.64170000     0.06033136    37.85850167   158.39997099
C     -1.60862200     1.70072700    -0.00000200
C     -0.45922000     2.53559000    -0.00001100
C      0.80496400     1.98413500    -0.00001300
C      0.98233300     0.56828800    -0.00000600
C      2.24691400    -0.05732300    -0.00000700
C      2.47774800    -1.45157600     0.00000100
C      1.22579500    -2.23333900     0.00000600
C      1.15892100    -3.64772900     0.00000700
C      2.31627200    -4.38248600     0.00000200
B      3.68700600    -3.68299500    -0.00000200
C      3.75176900    -2.14925000     0.00000100
C      5.09231000    -1.54021200     0.00000300
C      5.40712700    -0.14797600     0.00001500
C      6.70048600     0.35734100     0.00001600
C      7.80748500    -0.50521000     0.00000400
C      7.56472400    -1.86660800    -0.00000500
C      6.25474300    -2.40934400    -0.00000500
C      6.16394900    -3.84766300    -0.00001100
C      4.97213800    -4.50916000    -0.00000900
N      0.02269100    -1.58825000     0.00000800
C     -0.18630900    -0.24361200     0.00000300
C     -1.48086800     0.32416900     0.00000500
H     -2.60368900     2.15071300    -0.00000100
H     -0.58363300     3.62034800    -0.00001700
H      1.69144800     2.62264500    -0.00002000
H      4.62895400     0.60401900     0.00002800
H      0.16083500    -4.10651800     0.00001100
H      2.21927800    -5.47525700     0.00000200
H      3.08452900     0.62683000    -0.00001600
H      6.84582400     1.44110000     0.00002600
H      8.82745900    -0.11386400     0.00000400
H      8.40171700    -2.57090400    -0.00001300
H      7.12110100    -4.38476000    -0.00001700
H      4.98425900    -5.60623500    -0.00001200
H     -0.79797800    -2.19197900     0.00001200
H     -2.36130900    -0.32363600     0.00001100
