042
BNPAH_000032_PAH73   C24_H16_N01_B01 -1003.18501790     0.00000000    10.81044000  5260.36752297     8.38292925   228.11112382 22009.37771611    30.58353211     0.04873796     1.32622746   127.96149835    -4.16310000    -0.15299110   -96.00336743  -401.67808932    -3.14340000    -0.11551782   -72.48852662  -303.29199538     1.01970000     0.03747328    23.51484081    98.38609394
C      8.14487200    -0.00608200     0.00000100
B      6.92029900    -0.88270000     0.00000100
C      5.56523500    -0.13355400     0.00000100
C      4.34395900    -0.80978800     0.00000100
C      3.10162500    -0.14315900     0.00000000
C      1.85026600    -0.77366200     0.00000000
C      0.64245800    -0.08079800    -0.00000000
N      0.67097600     1.34185300    -0.00000100
C      1.86748700     1.97329700    -0.00000100
C      3.09882900     1.31556000    -0.00000100
C      4.31723700     2.02086300    -0.00000100
C      5.54977200     1.34469200    -0.00000100
C      6.77390900     2.05593700    -0.00000100
C      8.00747700     1.39520500    -0.00000000
C     -0.56286500     2.08966400    -0.00000100
C     -0.57891500     3.47545400    -0.00000000
C     -1.79454700     4.20805400     0.00000000
C     -1.81297900     5.63079800     0.00000100
C     -3.01041700     6.31867400     0.00000100
C     -4.24289800     5.61472000     0.00000100
C     -4.25925800     4.23490000     0.00000000
C     -3.04153600     3.49554200    -0.00000000
C     -3.00257500     2.08446400    -0.00000100
C     -1.80742800     1.36504200    -0.00000100
C     -1.80075200    -0.07391000    -0.00000100
C     -0.61916000    -0.74787700    -0.00000000
H      9.17094600    -0.39290400     0.00000200
H      6.93964900    -2.09563900     0.00000200
H      4.35007500    -1.90415800     0.00000100
H      1.79486600    -1.86437300     0.00000100
H      1.84370000     3.05943700    -0.00000200
H      4.30106000     3.11537400    -0.00000200
H      6.74346200     3.14945100    -0.00000200
H      8.90554900     2.02671900    -0.00000000
H      0.33931700     4.06090100    -0.00000000
H     -0.86405900     6.17345200     0.00000100
H     -3.01292100     7.41098600     0.00000200
H     -5.18212900     6.17268600     0.00000100
H     -5.20689900     3.69057100     0.00000000
H     -3.94244900     1.52665800    -0.00000100
H     -2.75439300    -0.60386800    -0.00000100
H     -0.58917500    -1.83850100    -0.00000000
