042
BNPAH_000374_PAH55   C24_H16_N01_B01 -1003.17823263     0.01900000    11.22765000  5256.10970546     8.37614398   227.92648738 21991.56300764    30.55877736     0.04869851     1.32515400   127.85792447    -4.59500000    -0.16886314  -105.96321812  -443.35010460    -3.37940000    -0.12419066   -77.93081595  -326.06253394     1.21560000     0.04467248    28.03240216   117.28757065
C      2.48126500    -0.15812900    -0.00250900
C      2.39801200    -1.54574500     0.00039100
C      1.15855800    -2.22148700     0.00116200
C      1.08744800    -3.62965800     0.00315700
C     -0.14989100    -4.21862200     0.00284000
C     -1.37885600    -3.50032400     0.00134800
C     -2.61520600    -4.26955200     0.00056000
C     -2.60688500    -5.69317700     0.00093500
C     -3.77226900    -6.43486400    -0.00015400
C     -5.00875200    -5.76476100    -0.00168600
C     -5.04310700    -4.38249600    -0.00204200
C     -3.86424400    -3.58868500    -0.00094000
C     -3.93303500    -2.12214800    -0.00085400
C     -5.18243700    -1.49602800    -0.00169000
B     -5.36571300     0.00081300    -0.00065400
C     -6.66138300     0.83211100    -0.00122600
C     -6.55487900     2.20451500     0.00052000
C     -5.28462700     2.88279500     0.00290400
C     -4.07968900     2.21352600     0.00357200
C     -4.04506800     0.78370300     0.00179300
C     -2.83441400     0.07859000     0.00236300
C     -2.68086500    -1.33524500     0.00060800
C     -1.39910500    -2.05824700     0.00056900
C     -0.07388000    -1.46459400    -0.00049600
N      0.11740200    -0.10664000    -0.00396700
C      1.28682400     0.55112200    -0.00496900
H      3.43556600     0.36787200    -0.00324500
H      3.30906100    -2.14900900     0.00191000
H      2.00365400    -4.22209900     0.00436700
H     -0.18550400    -5.30483100     0.00379800
H     -1.66620200    -6.24111800     0.00204600
H     -3.72754500    -7.52620000     0.00015700
H     -5.94374600    -6.33029900    -0.00256100
H     -6.01525800    -3.89504700    -0.00315000
H     -6.05806600    -2.14896200    -0.00291200
H     -7.67102500     0.40126500    -0.00287400
H     -7.44993900     2.83960800     0.00021400
H     -5.28678100     3.97756300     0.00423700
H     -3.14425700     2.79296800     0.00542700
H     -0.73827500     0.44908400    -0.00646300
H     -2.00428400     0.79264100     0.00534600
H      1.22430800     1.63978200    -0.00783200
