038
BNPAH_000354_PAH65   C22_H14_N01_B01  -925.83634299     0.00000000    11.05331000  4812.20950185     7.66874398   208.67715283 20134.28455574    30.45702216     0.04853635     1.32074147   127.43218072    -4.24120000    -0.15586123   -97.80439623  -409.21359382    -2.82430000    -0.10379111   -65.12990575  -272.50352566     1.41690000     0.05207012    32.67449048   136.71006816
C     -2.83428500     2.71083700    -0.00000100
C     -3.93382300     1.85798900    -0.00000100
C     -1.49168600     2.23746000    -0.00000000
C     -3.78422500     0.47076100    -0.00000100
C     -2.48238900    -0.06267000    -0.00000000
C     -1.32139600     0.80944700     0.00000000
C     -2.26293600    -1.45787400     0.00000000
C     -0.01091100     0.23998200     0.00000100
N     -1.00965200    -1.93212000     0.00000100
C      0.10359000    -1.15950500     0.00000100
C     -0.33561100     3.10526100     0.00000000
C      0.98907300     2.54841200     0.00000100
C      1.15822500     1.10975200     0.00000100
C     -0.51100600     4.52473400     0.00000100
C      0.52562700     5.43312600     0.00000100
B      1.95511500     4.93226500     0.00000100
C      2.14689100     3.39739200     0.00000000
C      3.45409600     2.79275900     0.00000000
C      2.43966200     0.56578100     0.00000100
C      3.60126000     1.36130800     0.00000000
C      4.65783200     3.56112200    -0.00000000
C      4.89772900     0.76520500    -0.00000000
C      5.90034600     2.96078700    -0.00000100
C      6.03085800     1.54664300    -0.00000100
H      4.97272700    -0.32637800    -0.00000000
H      4.57622400     4.64718200    -0.00000100
H      7.02267100     1.08819400    -0.00000100
H      6.79935900     3.58278000    -0.00000200
H     -3.02117400     3.78324000    -0.00000100
H     -4.93749400     2.29060800    -0.00000200
H     -4.64834800    -0.19635600    -0.00000100
H      2.58491100    -0.51706300     0.00000100
H     -1.53812000     4.90083700     0.00000100
H      0.25459500     6.49509400     0.00000100
H      2.88821100     5.70154500     0.00000100
H     -3.07184400    -2.18754500    -0.00000000
H     -0.88082500    -2.94167300     0.00000100
H      1.04709300    -1.69728900     0.00000100
