042
BNPAH_000377_PAH61   C24_H16_N01_B01 -1003.20102597     6.15900000     7.48455000  5270.41274178     8.39893732   228.54672573 22051.40691161    30.64193455     0.04883103     1.32876003   128.20585416    -4.40950000    -0.16204614  -101.68548646  -425.45207535    -2.44580000    -0.08988149   -56.40148833  -235.98382716     1.96370000     0.07216464    45.28399813   189.46824818
C     -2.68934200     3.78271600    -0.54215400
N     -1.39124600     3.66110300    -0.17615700
C     -3.52516000     2.68146900    -0.55611200
C     -0.77341200     2.43869400    -0.02979200
C     -3.00035000     1.39230200    -0.13291100
C     -1.54061300     1.27134100    -0.16364900
C     -4.91981100     2.80846600    -0.89019200
C     -3.89530200     0.37687800     0.28219800
C     -5.76083000     1.75878700    -0.67664700
C     -5.31161800     0.55414600    -0.02484000
C      0.64311300     2.40963200     0.27964300
C     -0.80621600     0.03243500    -0.43507800
C      1.32071400     1.15829300     0.23944600
C      0.60623000    -0.02122600    -0.23902100
C     -6.24606600    -0.41513500     0.34468700
B     -3.48983100    -0.82589300     1.17667000
C     -5.89116000    -1.56414300     1.09431200
C     -4.59669500    -1.80005600     1.53697300
C     -1.44099200    -1.08412400    -1.03443400
C      1.29861600    -1.21342600    -0.56608200
C     -0.73538500    -2.22523800    -1.37382200
C      0.64525000    -2.30379200    -1.11439000
C      1.35177200     3.57055900     0.67431400
C      2.68991900     3.51064700     1.03201100
C      2.68181300     1.12608000     0.62376400
C      3.35820200     2.27395100     1.01039600
H      0.84613600     4.53782700     0.74625900
H      3.21250200     4.41643600     1.34675200
H      3.21493500     0.17509800     0.62849500
H      4.40770200     2.21328000     1.30690200
H     -3.03866900     4.79081000    -0.77004400
H     -0.81900400     4.49585000    -0.11666900
H     -5.28190100     3.75759400    -1.29384400
H     -6.82011000     1.84394200    -0.93617700
H     -7.29419000    -0.25955200     0.07170400
H     -6.69982000    -2.26340700     1.34358400
H     -4.43138800    -2.69661600     2.14594600
H     -2.36638200    -0.93554900     1.60709400
H     -2.51025600    -1.03781100    -1.23520500
H     -1.25669000    -3.06244600    -1.84327400
H      1.20532600    -3.20713900    -1.36655300
H      2.37759200    -1.26621800    -0.41697500
