042
BNPAH_000279_PAH44   C24_H16_N01_B01 -1003.22251062     0.00000000     9.37960000  5283.89456745     8.42042198   229.13135302 22107.81487021    30.72031725     0.04895594     1.33215903   128.53380737    -4.17540000    -0.15344312   -96.28701217  -402.86485892    -2.60030000    -0.09555926   -59.96434300  -250.89081109     1.57510000     0.05788386    36.32266917   151.97404782
C     -2.95050500     0.10304600     0.00000200
C     -2.83325200     1.48674700     0.00000200
C     -1.56717400     2.11539400     0.00000100
C     -1.46256700     3.55677300     0.00000100
C     -0.25131200     4.17702000     0.00000000
C      0.97896100     3.42691600    -0.00000100
C      2.21269300     4.06897900    -0.00000100
C      3.44501400     3.36940400    -0.00000200
C      4.66957700     4.07325800    -0.00000100
C      5.90292300     3.40728700    -0.00000100
C      7.13358100     4.12345700    -0.00000000
C      8.37623400     3.50409300     0.00000100
C      8.52716500     2.09193800     0.00000100
C      9.81846900     1.48749700     0.00000200
C      9.95908700     0.12273900     0.00000200
N      8.83648300    -0.66331700     0.00000100
C      7.58599500    -0.13831100    -0.00000100
C      7.35634000     1.22975600    -0.00000100
B      5.93098600     1.86001000    -0.00000200
C      4.60673500     1.15203400    -0.00000200
C      3.41294200     1.90543300    -0.00000200
C      2.13094900     1.27791500    -0.00000200
C      0.93011900     1.97494000    -0.00000100
C     -0.38337000     1.31618100    -0.00000000
C     -0.53402400    -0.08831600    -0.00000100
C     -1.78890000    -0.68814600     0.00000000
H     -3.93724800    -0.36654800     0.00000200
H     -3.72866700     2.11468500     0.00000300
H     -2.38684400     4.14070000     0.00000200
H     -0.18727400     5.26870000     0.00000100
H      2.23645600     5.16323200    -0.00000100
H      4.62828800     5.17034500    -0.00000100
H      7.11342700     5.22137700    -0.00000000
H      9.28239500     4.11623700     0.00000200
H     10.71585200     2.10965100     0.00000300
H     10.91708600    -0.39597200     0.00000300
H      8.94591900    -1.67372300     0.00000000
H      6.77129500    -0.86480800    -0.00000200
H      4.47028100     0.06125900    -0.00000200
H      2.12468000     0.18564000    -0.00000200
H      0.35188800    -0.72543000    -0.00000200
H     -1.86838400    -1.77812800    -0.00000000
