042
BNPAH_000385_PAH64   C24_H16_N01_B01 -1003.20824812     4.66100000     7.38964000  5274.94471121     8.40615948   228.74325053 22070.36867170    30.66828320     0.04887302     1.32990262   128.31609691    -4.57560000    -0.16815020  -105.51584348  -441.47828914    -2.45450000    -0.09020121   -56.60211510  -236.82324956     2.12110000     0.07794899    48.91372839   204.65503958
C    -12.45761300    -7.49980200    10.91449900
C    -11.31453700    -6.75669000    10.56615700
C    -13.71435800    -6.92155600    10.81004100
C    -11.43975300    -5.47248200    10.05298500
C    -13.85792800    -5.60317600    10.32274100
C    -12.71232200    -4.88657100     9.86163000
C    -15.11816200    -4.91801500    10.36271900
C    -12.85672800    -3.54221800     9.29979600
C    -15.16505000    -3.59318000    10.08596000
N    -14.05455900    -2.89385500     9.62457900
C    -11.87039500    -2.86668400     8.54167600
C    -14.17964500    -1.51695200     9.45114700
C    -13.15108200    -0.78424200     8.95748400
C    -11.96633000    -1.41755500     8.46581100
C    -10.94380300    -0.64686800     7.89160200
B    -10.73121200    -3.54063000     7.70187600
C     -9.64197900    -2.60551700     7.15288200
C     -9.81128600    -1.21828500     7.30058800
C    -10.66677800    -5.00521200     7.22415200
C     -9.60930200    -5.40999900     6.45698100
C     -8.50291800    -3.15910600     6.42318000
C     -8.50412000    -4.55202300     6.08524100
C     -7.41752900    -5.09265700     5.35754300
C     -7.38607600    -2.38789600     6.01492300
C     -6.33854800    -4.30916500     4.97252600
C     -6.32536900    -2.94322800     5.31047400
H     -7.44084000    -6.15629100     5.10153000
H     -7.34364000    -1.32735500     6.27243400
H     -5.50685900    -4.74806600     4.41567400
H     -5.47756000    -2.31600900     5.02214300
H    -14.60548900    -7.46521500    11.13309500
H    -10.54983300    -4.89817700     9.80095400
H    -12.35318900    -8.51578200    11.30245200
H    -10.31974500    -7.18484700    10.70542700
H    -16.02065900    -5.43287600    10.69427300
H    -16.06554600    -2.98930500    10.19597700
H    -15.13680400    -1.09853700     9.75998100
H    -13.26201900     0.29965700     8.88451300
H    -11.05581600     0.44085100     7.89166000
H     -9.07372900    -0.52145900     6.88704700
H    -11.43976200    -5.75502900     7.42759400
H     -9.55497100    -6.44070700     6.08268400
