038
BNPAH_000115_PAH66   C22_H14_N01_B01  -925.81988972     0.00500000     3.67656000  4801.88491672     7.65229071   208.22943645 20091.08649156    30.39167669     0.04843222     1.31790783   127.15877527    -4.91010000    -0.18044285  -113.22959679  -473.75263299    -2.70520000    -0.09941427   -62.38339448  -261.01212251     2.20490000     0.08102858    50.84620231   212.74051047
C      4.23615100    -2.94972700     0.00044400
C      3.01445600    -3.69354100     0.00101900
C      1.74648700    -3.14711200     0.00093200
C      1.48089500    -1.72344900     0.00018300
B      2.80284300    -0.90475700    -0.00020100
C      4.18123800    -1.58423200    -0.00012200
C      2.64328600     0.56916100    -0.00052600
C      1.38982000     1.15158400    -0.00038100
C      1.33663800     2.58179400    -0.00046300
C      0.16601700     3.27289500    -0.00024900
C     -1.01113100     2.50407200     0.00003900
C     -1.02709900     1.12248200     0.00007600
C     -2.32492700     0.44455700     0.00031500
C     -3.53051700     1.15930700     0.00068700
C     -4.77424000     0.51230800     0.00076000
C     -4.83185300    -0.86562700     0.00039500
C     -3.64014200    -1.63251300    -0.00002100
C     -2.35530700    -0.97416700     0.00001800
C     -1.12937600    -1.72936900    -0.00033000
C     -1.29329900    -3.12092100    -0.00103900
C     -2.54293100    -3.76848900    -0.00111700
C     -3.71115100    -3.04728900    -0.00054900
C      0.20913600    -1.05649500    -0.00007100
N      0.18376100     0.37378100    -0.00013200
H      5.18091600    -3.50554700     0.00057900
H      3.07977100    -4.78628500     0.00161200
H     -0.44764900    -3.78012900    -0.00166300
H      5.11661100    -1.01180200    -0.00043500
H      3.47541500     1.27987000    -0.00075000
H      2.30418400     3.08419000    -0.00067500
H      0.12746200     4.36295700    -0.00029100
H     -1.96515500     3.02041400     0.00020300
H     -3.53671100     2.24707400     0.00093000
H     -5.68891700     1.10916000     0.00106100
H     -5.79071000    -1.38913600     0.00037900
H      0.98643100    -3.91413900     0.00163700
H     -2.56109300    -4.86073800    -0.00165900
H     -4.68866100    -3.53469900    -0.00059700
