038
BNPAH_000309_PAH62   C22_H14_N01_B01  -925.84314758     0.00000000     6.16943000  4816.47944516     7.67554857   208.86231509 20152.14999855    30.48404712     0.04857942     1.32191339   127.54525315    -4.65550000    -0.17108647  -107.35838127  -449.18746723    -2.74880000    -0.10101654   -63.38883438  -265.21888303     1.90670000     0.07006993    43.96954689   183.96858421
C      4.68114100     2.08914600     0.00003300
C      4.80936100     0.68483100     0.00008700
C      3.69857900    -0.14118400     0.00008000
C      2.35005400     0.33403800     0.00001400
C      2.25354700     1.78178400    -0.00002000
C      3.41279500     2.61557500    -0.00001600
C      1.00373100     2.41530200    -0.00004800
C     -0.16438900     1.66866600    -0.00003500
C     -1.40551200     2.35129800    -0.00004300
N     -2.53860700     1.66375600    -0.00002300
C     -2.62656600     0.29638800     0.00000300
C     -1.40431300    -0.47226300     0.00000500
C     -1.49717600    -1.88010000     0.00002600
B     -2.89048900    -2.54697000     0.00005200
C     -4.10908800    -1.63276900     0.00005000
C     -3.92515400    -0.26877000     0.00002500
C     -0.24484500    -2.61150300     0.00000900
C     -0.31237500    -4.03166300     0.00000800
C      0.80797500    -4.83582800    -0.00003200
C      2.06772700    -4.22030000    -0.00008000
C      2.16604600    -2.83891500    -0.00007500
C      1.04375900    -1.96094000    -0.00002000
C      1.12156700    -0.48199200    -0.00000600
C     -0.12960900     0.21632300    -0.00001200
H      5.56243900     2.73420300     0.00003900
H      5.80130300     0.22672700     0.00013900
H      3.17395500    -2.46120400    -0.00012800
H      3.25673500     3.69752100    -0.00004800
H      0.95438800     3.50707400    -0.00006900
H     -1.47141000     3.43892100    -0.00006100
H     -3.42139900     2.17322300    -0.00002600
H     -3.05095400    -3.74326900     0.00007100
H     -5.13997600    -2.00259700     0.00006700
H     -4.77074200     0.43450200     0.00002100
H     -1.30311500    -4.48113000     0.00003600
H      0.71160500    -5.92419200    -0.00003500
H      2.98254400    -4.81793200    -0.00012400
H      3.92555600    -1.19396400     0.00013800
