042
BNPAH_000170_PAH63   C24_H16_N01_B01 -1003.18910935     0.00500000     6.97345000  5262.93494781     8.38702070   228.22245790 22020.11982164    30.59845900     0.04876175     1.32687476   128.02395246    -4.66840000    -0.17156054  -107.65586234  -450.43212803    -2.68570000    -0.09869766   -61.93371380  -259.13065852     1.98270000     0.07286288    45.72214854   191.30146951
C      2.52325000     0.11994700     0.00005400
C      2.39922000    -1.25298600    -0.00044000
C      1.13629400    -1.90061500    -0.00039500
C      1.14605900    -3.32547800    -0.00081600
C     -0.02358300    -4.02276000    -0.00071400
C     -1.29191600    -3.37121200    -0.00028900
B     -2.56338800    -4.25314200    -0.00004800
C     -2.47526800    -5.78259300    -0.00007300
C     -3.63330800    -6.52490400     0.00042000
C     -4.90210700    -5.88222000     0.00098000
C     -5.05648000    -4.50845700     0.00096200
C     -3.95265300    -3.58883900     0.00035900
C     -4.00577600    -2.14677700     0.00014900
C     -5.22632000    -1.30426400    -0.00012600
C     -6.56546100    -1.79167000    -0.00076300
C     -7.67803200    -0.96482200    -0.00092100
C     -7.55772600     0.43981600    -0.00051300
C     -6.29152100     0.97815000    -0.00005700
C     -5.14520500     0.13597000     0.00007300
C     -3.87880100     0.72884100     0.00027900
N     -2.81010600    -0.05281800     0.00022900
C     -2.73575400    -1.41820100     0.00014800
C     -1.37113800    -1.95517900     0.00002200
C     -0.10973900    -1.16175200     0.00011000
C      0.09486300     0.26049800     0.00068900
C      1.34120300     0.87435900     0.00065000
H      3.50173100     0.60434400     0.00002600
H      3.28858600    -1.88836900    -0.00086100
H      2.11236700    -3.83654600    -0.00116400
H     -0.00082400    -5.11252700    -0.00097200
H     -1.53309400    -6.34331500    -0.00039100
H     -3.61155900    -7.62154400     0.00047000
H     -5.80512700    -6.50023600     0.00147100
H     -6.76303300    -2.85068300    -0.00124500
H     -6.09512300    -4.20009600     0.00158100
H     -8.66949100    -1.42385200    -0.00140600
H     -8.44308900     1.07872300    -0.00064400
H     -6.13875800     2.06049800     0.00015800
H     -3.71319500     1.80647900     0.00036900
H     -0.68669700     1.02188900     0.00129700
H     -1.91103400     0.41014200     0.00022500
H      1.38442700     1.96618000     0.00111700
