042
BNPAH_000423_PAH75   C24_H16_N01_B01 -1003.19223657     0.00000000    15.87934000  5264.89730865     8.39014792   228.30755392 22028.33033939    30.60986807     0.04877993     1.32736950   128.07168800    -4.18710000    -0.15387309   -96.55682058  -403.99373731    -3.61340000    -0.13279000   -83.32698419  -348.64010184     0.57370000     0.02108309    13.22983639    55.35363547
C      2.79737000     0.31885700    -0.00000100
C      2.87253700    -1.08932400    -0.00000100
C      1.71154200    -1.84771800    -0.00000000
C      0.43574000    -1.22671900     0.00000000
C     -0.78813400    -1.95088100     0.00000000
C     -2.03581400    -1.32647800     0.00000100
C     -2.05728600     0.11565100     0.00000100
C     -3.26955400     0.81196100     0.00000100
C     -4.47193700     0.11026600     0.00000100
C     -4.54611500    -1.29858300     0.00000100
C     -5.82378700    -2.00095800     0.00000000
C     -7.06130400    -1.32656200     0.00000000
C     -8.26297400    -2.02969000    -0.00000000
C     -8.33149300    -3.43091700    -0.00000000
C     -9.61292100    -4.08274400    -0.00000100
C     -9.76038200    -5.44916900    -0.00000100
B     -8.50940500    -6.33568400    -0.00000000
C     -7.17214500    -5.59606700     0.00000000
C     -7.10005900    -4.19692200     0.00000000
C     -5.83668300    -3.44674200     0.00000000
C     -4.59648000    -4.10941000     0.00000100
C     -3.37834300    -3.44043800     0.00000100
C     -3.31140800    -2.03797600     0.00000100
N     -0.85764600     0.78825400     0.00000000
C      0.38361700     0.19922300    -0.00000000
C      1.56521600     0.96374100    -0.00000000
H      3.71385600     0.91270200    -0.00000100
H      3.84737000    -1.58067200    -0.00000100
H      1.76148800    -2.93897000    -0.00000000
H     -0.72601900    -3.03980900     0.00000000
H     -3.27060600     1.90470100     0.00000000
H     -5.39326000     0.69302100     0.00000100
H     -7.09948600    -0.23650000    -0.00000000
H     -9.20143000    -1.46647600    -0.00000100
H    -10.48544900    -3.41555500    -0.00000100
H    -10.78472000    -5.84184500    -0.00000100
H     -8.56318200    -7.54708700     0.00000000
H     -6.22790400    -6.15201000     0.00000100
H     -4.58243400    -5.19942700     0.00000000
H     -2.46441700    -4.03647700     0.00000100
H     -0.89742100     1.80430400     0.00000000
H      1.50686400     2.05513100    -0.00000000
