038
BNPAH_000060_PAH27   C22_H14_N01_B01  -925.87525699     0.00000000     5.86645000  4836.62840515     7.70765798   209.73605669 20236.45324715    30.61157218     0.04878265     1.32744340   128.07881800    -4.67850000    -0.17193171  -107.88877387  -451.40662989    -2.59710000    -0.09544167   -59.89054924  -250.58205803     2.08140000     0.07649004    47.99822463   200.82457186
C      6.51787300    -0.35036700     0.00000100
C      6.60852000     1.06537000     0.00000000
C      5.47498600     1.86600000     0.00000000
B      4.12163100     1.17489300    -0.00000000
C      4.06464400    -0.33990300    -0.00000000
C      5.30237500    -1.02964500     0.00000000
C      2.77621600    -1.02692100    -0.00000000
C      2.69813800    -2.43473400    -0.00000000
C      1.48267700    -3.11124800    -0.00000100
C      0.28462700    -2.40299800    -0.00000000
C      0.28254800    -0.99626100    -0.00000000
C      1.53093900    -0.29202300    -0.00000000
C      1.51332400     1.15540000    -0.00000000
C      2.75657500     1.87530700    -0.00000000
N      2.68274500     3.24088000    -0.00000000
C      1.53867300     3.95806600    -0.00000000
C      0.33287700     3.30191700    -0.00000000
C      0.28734200     1.87923200    -0.00000000
C     -0.98230800     1.16813600    -0.00000000
C     -2.21965500     1.86064500     0.00000000
C     -3.42797000     1.18568400     0.00000100
C     -3.43161100    -0.22064600     0.00000100
C     -2.23455600    -0.91856100     0.00000000
C     -0.98148700    -0.25630200    -0.00000000
H      7.44422500    -0.93265900     0.00000100
H      7.61113300     1.50991200     0.00000100
H      5.64566500     2.95400500     0.00000000
H      5.34617800    -2.12400500     0.00000000
H      3.62084200    -3.01542200    -0.00000000
H      1.46735700    -4.20398700    -0.00000100
H     -0.65276600    -2.95738000    -0.00000000
H      3.57568300     3.73105500    -0.00000000
H      1.63405300     5.04425200    -0.00000000
H     -0.57655400     3.89802000    -0.00000000
H     -2.23266400     2.95054600     0.00000000
H     -4.36775800     1.74209400     0.00000100
H     -4.37758800    -0.76723900     0.00000100
H     -2.27055700    -2.00711100     0.00000000
