042
BNPAH_000595_PAH72   C24_H16_N01_B01 -1003.19364896     0.00000000    16.30962000  5265.78359991     8.39156032   228.34598714 22032.03858202    30.61502093     0.04878814     1.32759295   128.09324757    -3.75010000    -0.13781363   -86.47936110  -361.82964684    -3.43700000    -0.12630742   -79.25910352  -331.62008912     0.31310000     0.01150621     7.22025758    30.20955773
C      2.84587400     0.19140200     0.00000200
C      2.76896100    -1.22011300     0.00000200
C      1.53700200    -1.85205100     0.00000000
C      0.32699400    -1.09999900    -0.00000000
C     -0.92932000    -1.77833700    -0.00000100
C     -2.16603700    -1.13394200    -0.00000100
C     -2.21654100     0.32287700    -0.00000100
C     -3.47754000     0.95352400    -0.00000100
C     -4.68226000     0.26062100    -0.00000100
C     -4.68621900    -1.15483800    -0.00000100
C     -3.42551700    -1.88691900    -0.00000200
C     -3.48577800    -3.28373500    -0.00000200
C     -4.69066000    -4.01466600    -0.00000200
C     -4.70735700    -5.43798300    -0.00000200
C     -5.88014500    -6.16693100    -0.00000100
C     -7.13447500    -5.50085400    -0.00000000
C     -8.38187000    -6.16794800     0.00000100
C     -9.58832900    -5.46962600     0.00000200
C     -9.56072300    -4.07825300     0.00000200
N     -8.36570600    -3.44661800     0.00000100
C     -7.14583500    -4.05812100     0.00000000
C     -5.93661600    -3.28438200    -0.00000100
C     -5.89500800    -1.88517100    -0.00000100
B     -0.92067000     1.13108800    -0.00000000
C      0.39364400     0.33854400     0.00000000
C      1.67671700     0.94141200     0.00000100
H      3.82244000     0.68317400     0.00000300
H      3.68693900    -1.81491800     0.00000200
H      1.48304500    -2.94549900     0.00000000
H     -0.88386800    -2.87041600    -0.00000100
H     -3.49687600     2.04790200    -0.00000100
H     -5.63705100     0.79383500    -0.00000100
H     -2.55872600    -3.85896100    -0.00000200
H     -3.74750400    -5.96044300    -0.00000300
H     -5.86383500    -7.25823500    -0.00000100
H     -8.38882600    -7.26053200     0.00000100
H    -10.54675400    -5.98877600     0.00000300
H    -10.44798600    -3.44634000     0.00000300
H     -8.36133000    -2.42753600     0.00000100
H     -6.81691800    -1.29120500    -0.00000100
H     -0.93902600     2.34472400    -0.00000000
H      1.73526100     2.03422200     0.00000200
