042
BNPAH_000125_PAH32   C24_H16_N01_B01 -1003.18199107     0.00500000     6.96079000  5258.46816131     8.37990242   228.02875971 22001.43078692    30.57248931     0.04872036     1.32574860   127.91529527    -5.12500000    -0.18834028  -118.18530856  -494.48733102    -2.16570000    -0.07958801   -49.94222883  -208.95828542     2.95930000     0.10875227    68.24307973   285.52904560
C      1.43079200    -2.25285700     0.00066000
C      0.18896800    -2.79524500     0.00018600
C     -1.01161800    -1.99402300    -0.00002900
C     -2.22935900    -2.64470000    -0.00037900
B     -3.48698500    -1.85426500    -0.00049200
C     -3.38766100    -0.29212500    -0.00029200
C     -4.63587600     0.48158400    -0.00029200
C     -5.85216700    -0.27821600    -0.00049100
C     -7.07974600     0.29993300    -0.00041700
C     -7.21150600     1.71169700    -0.00004100
C     -8.53004100     2.23847700     0.00013200
C     -8.77108500     3.59418800     0.00062800
C     -7.65493500     4.44686100     0.00100100
C     -6.36097500     3.94800600     0.00081400
C     -6.03676000     2.55192700     0.00020700
C     -4.69625600     1.90432900    -0.00007800
C     -3.38884100     2.57797500    -0.00026800
C     -2.13798400     1.83368100    -0.00026300
C     -0.95667000     2.62876400    -0.00057400
C     -0.91011000     4.01039200    -0.00085100
C     -2.11091400     4.71674100    -0.00087500
C     -3.28815400     3.99596300    -0.00060800
C     -2.12512300     0.35265000    -0.00008600
C     -0.89976900    -0.51441700     0.00018400
C      0.42174900    -0.07599100     0.00075000
N      1.51555900    -0.88656200     0.00096200
H      2.36632200    -2.81151800     0.00086000
H      0.07363600    -3.87989900    -0.00001400
H     -2.20126600    -3.73988500    -0.00049900
H     -4.51793500    -2.47150400    -0.00072700
H     -5.78043800    -1.35802600    -0.00070900
H     -7.98333200    -0.31497700    -0.00058100
H     -9.35721400     1.52377900    -0.00011200
H     -9.78811200     3.99239600     0.00077700
H     -7.79244700     5.53107700     0.00146800
H     -4.18341700     4.58518000    -0.00075900
H      0.72915200     0.95409000     0.00114000
H      0.05635100     4.52009000    -0.00109700
H     -2.13773500     5.80870000    -0.00114200
H     -5.61351300     4.72450800     0.00124400
H      0.01395000     2.17416200    -0.00070800
H      2.42725600    -0.44296000     0.00137300
