026
BNPAH_000032_PAH06   C14_H10_N01_B01  -618.76684506     0.00000000     6.58251000  3225.34796851     5.13991916   139.86432442 13494.85590025    30.42781102     0.04848980     1.31947476   127.30996131    -4.76140000    -0.17497822  -109.80049330  -459.40526399    -2.50320000    -0.09199090   -57.72516378  -241.52208527     2.25820000     0.08298732    52.07532952   217.88317872
C      3.58182800    -0.05513500     0.00038700
C      2.99853000     1.21701100     0.00043000
B      1.48193600     1.34086400     0.00024900
C      0.71122900     0.01794900     0.00002800
C      1.41098600    -1.23470500     0.00000100
C      0.65928100    -2.44956200    -0.00020800
C     -0.71928900    -2.44799400    -0.00038400
C     -1.41758700    -1.21005000    -0.00035900
N     -2.78581900    -1.18017100    -0.00053100
C     -3.51044600    -0.02080500    -0.00051700
C     -2.86601200     1.19160100    -0.00032300
C     -1.44503300     1.26799800    -0.00013300
C     -0.76182900     2.52010600     0.00007000
C      0.61881600     2.61248400     0.00025600
C     -0.70310100     0.02486400    -0.00015300
C      2.82454200    -1.24097000     0.00018000
H      4.67345200    -0.16155700     0.00051500
H      3.68446500     2.07371600     0.00059700
H      1.19179100    -3.40543000    -0.00022800
H     -1.28252300    -3.38546800    -0.00054300
H     -3.28151500    -2.06738100    -0.00067700
H     -4.59449200    -0.13174500    -0.00066600
H     -3.46162600     2.10625200    -0.00031500
H     -1.39199800     3.41793300     0.00007300
H      1.04122000     3.62569800     0.00040400
H      3.34273400    -2.20515400     0.00015700
