038
BNPAH_000017_PAH65   C22_H14_N01_B01  -925.84236898     0.00000000     8.28931000  4815.99086811     7.67476997   208.84112839 20150.10579217    30.48095486     0.04857449     1.32177929   127.53231513    -4.51480000    -0.16591584  -104.11376216  -435.61198090    -2.61080000    -0.09594513   -60.20647875  -251.90390709     1.90400000     0.06997071    43.90728341   183.70807381
B     -2.92657300     2.82726700    -0.00000000
C     -4.08781500     1.82618800    -0.00000000
C     -1.49679200     2.25663100    -0.00000000
C     -3.81607500     0.48679400     0.00000000
C     -2.46976900    -0.03838300     0.00000000
C     -1.32123000     0.84292000    -0.00000000
C     -2.28176200    -1.42385800     0.00000000
C     -0.01354800     0.24167400    -0.00000000
C     -1.00063700    -1.99551400     0.00000000
C      0.11238500    -1.16989700    -0.00000000
C     -0.31800900     3.09171000    -0.00000000
C      1.00419000     2.51121500    -0.00000000
C      1.15431900     1.08856600    -0.00000000
C     -0.41578200     4.50731600    -0.00000000
C      0.70968300     5.30599000     0.00000000
C      2.00190800     4.75497200    -0.00000000
C      2.15852300     3.36989200    -0.00000000
N      3.46080900     2.77621200    -0.00000000
C      2.46932500     0.57072500    -0.00000000
C      3.59222600     1.37940500    -0.00000000
C      4.59730700     3.56147600     0.00000000
C      4.91831000     0.83175600    -0.00000000
C      5.85845600     3.04056700     0.00000000
C      6.03029400     1.62493800     0.00000000
H      4.99642600    -0.25635600    -0.00000000
H      4.43359700     4.63321300     0.00000000
H      7.03034200     1.18767200     0.00000000
H      6.71091100     3.71985800     0.00000100
H     -3.15391800     4.01523400    -0.00000000
H     -5.14048900     2.13161200     0.00000000
H     -4.61920800    -0.26155400     0.00000000
H      2.65080300    -0.50161700    -0.00000100
H     -1.40743200     4.95580700     0.00000000
H      0.60428100     6.39358900     0.00000000
H      2.84843300     5.43745000     0.00000000
H     -3.16393800    -2.07079200     0.00000000
H     -0.88062200    -3.08109900     0.00000000
H      1.10144200    -1.62954800    -0.00000000
