038
BNPAH_000260_PAH28   C22_H14_N01_B01  -925.88004235     0.00000000     2.40718000  4839.63126895     7.71244335   209.86627319 20249.01722929    30.63057765     0.04881293     1.32826755   128.15833689    -5.09660000    -0.18729660  -117.53038900  -491.74714757    -2.71790000    -0.09988098   -62.67626344  -262.23748624     2.37870000     0.08741561    54.85412556   229.50966133
C     -5.81445700    -2.32699200    -0.00000100
C     -5.92287700    -0.91975800    -0.00000000
C     -4.78193700    -0.13620500     0.00000000
C     -3.47348200    -0.69368900     0.00000000
C     -3.38969500    -2.13228800    -0.00000000
C     -4.56365100    -2.91988200    -0.00000100
N     -2.16811300    -2.79511100    -0.00000000
C     -0.95985800    -2.17856800     0.00000000
C      0.28924400    -2.88064700     0.00000000
C      1.47558600    -2.17697500     0.00000000
C      1.56612300    -0.72731700     0.00000000
C      2.78879800    -0.06225300     0.00000000
C      2.85177200     1.35982800     0.00000000
C      4.11441800     2.01922500    -0.00000000
C      4.20273100     3.39657400    -0.00000100
C      3.01962800     4.17199200    -0.00000100
C      1.77713900     3.56170900    -0.00000000
C      1.64308100     2.14877800     0.00000000
C      0.36712800     1.46089700     0.00000100
C     -0.90334000     2.14077200     0.00000100
C     -2.14164100     1.50813300     0.00000100
C     -2.25814400     0.08624200     0.00000100
B     -0.95985300    -0.66638200     0.00000100
C      0.35997000     0.04851600     0.00000100
H     -6.71175800    -2.94969100    -0.00000100
H     -6.90906900    -0.44980300    -0.00000000
H     -4.87823600     0.95125900     0.00000000
H     -4.47049000    -4.01035600    -0.00000100
H     -2.21898900    -3.81394900    -0.00000000
H      0.32085600    -3.97715200     0.00000000
H      2.41498200    -2.73808600     0.00000000
H      3.72845400    -0.62413900     0.00000000
H      5.02071600     1.40740400    -0.00000000
H      5.17850800     3.88788600    -0.00000100
H      3.08690700     5.26280500    -0.00000100
H      0.88141900     4.18453000    -0.00000000
H     -0.90583600     3.23313100     0.00000100
H     -3.02829500     2.15238000     0.00000100
