042
BNPAH_000078_PAH51   C24_H16_N01_B01 -1003.25328184     0.00000000     1.63532000  5303.20380041     8.45119320   229.96868061 22188.60470092    30.83258023     0.04913484     1.33702721   129.00351568    -5.17360000    -0.19012629  -119.30605120  -499.17651820    -2.26170000    -0.08311594   -52.15604144  -218.22087738     2.91190000     0.10701035    67.15000976   280.95564082
C     -2.99489700    -3.05048700     0.00001700
C     -2.73164300    -1.70905900    -0.00001700
N     -1.43283100    -1.23199100    -0.00000900
B     -0.28004900    -2.15605600     0.00003600
C     -0.62721400    -3.64342100     0.00007500
C     -1.94682300    -4.02742300     0.00006400
C      1.08880100    -1.51387500     0.00003900
C      1.31477300    -0.13564600    -0.00000300
C      0.08207400     0.66950000    -0.00003000
C      0.12443000     2.10520100    -0.00004000
C      1.31488700     2.74581400    -0.00001900
C      2.55825500     2.01787400    -0.00000200
C      3.73235000     2.81241400     0.00002400
C      4.97833200     2.24912600     0.00003700
C      5.13283100     0.84138900     0.00001100
C      6.47986900     0.27830000     0.00001100
C      7.65435300     1.07795200     0.00005600
C      8.91834100     0.51024800     0.00005300
C      9.07726300    -0.89190800     0.00000300
C      7.95578600    -1.70047900    -0.00004300
C      6.65478500    -1.13656300    -0.00003900
C      5.48611700    -1.95108000    -0.00009200
C      4.22820500    -1.41530000    -0.00008600
C      3.96233200     0.00010200    -0.00002400
C      2.62288100     0.59186600    -0.00001000
C     -1.18681200     0.10831500    -0.00003600
H     -4.03926500    -3.36945500     0.00000900
H     -3.52325500    -0.95571700    -0.00005000
H      0.14182900    -4.42346700     0.00011100
H     -2.23751800    -5.08347800     0.00009000
H      3.41589700    -2.12329800    -0.00013900
H     -0.81736800     2.65974800    -0.00005700
H      1.36555200     3.83704300    -0.00001800
H      3.62014400     3.89930600     0.00003400
H      5.85285400     2.89793900     0.00005900
H      7.58039500     2.16533100     0.00009500
H      9.79874800     1.15746100     0.00008900
H     10.07770600    -1.33092700     0.00000100
H      8.05430300    -2.78929600    -0.00008300
H      5.60373100    -3.03801900    -0.00014100
H      1.91688600    -2.20972500     0.00008500
H     -2.06355400     0.76177500    -0.00005900
