042
BNPAH_000514_PAH59   C24_H16_N01_B01 -1003.18862083     0.00000000    14.04579000  5262.62839656     8.38653218   228.20916458 22018.83721121    30.59667672     0.04875891     1.32679747   128.01649540    -3.99770000    -0.14691277   -92.18915279  -385.71941526    -3.13780000    -0.11531202   -72.35938755  -302.75167752     0.85990000     0.03160074    19.82976524    82.96773775
C      2.09773400     3.55267000     0.00000100
C      2.13281500     2.16998000     0.00000100
C      0.95736500     1.36649200    -0.00000000
C     -0.31030200     2.05824600    -0.00000000
C     -0.30706500     3.47971900     0.00000000
C      0.85903800     4.22375800     0.00000100
C     -1.57852700     1.32901100    -0.00000100
C     -1.58727800    -0.12664200    -0.00000100
C     -2.82168300    -0.78801600    -0.00000100
C     -4.05908600    -0.12288400    -0.00000100
C     -4.03947700     1.32324000    -0.00000100
C     -5.28790300     2.00302300    -0.00000100
C     -6.47106600     1.32647100    -0.00000100
N     -6.50303100    -0.07191400    -0.00000000
C     -7.73131000    -0.70001600     0.00000100
C     -7.85056200    -2.06394200     0.00000100
C     -6.67565300    -2.85107300     0.00000100
C     -5.44743500    -2.22590000     0.00000000
C     -5.31738300    -0.81233100    -0.00000000
C     -2.81438400     1.99945600    -0.00000100
B     -0.25093700    -0.91381600    -0.00000100
C     -0.11907000    -2.43198300    -0.00000100
C      1.15254100    -2.98635100    -0.00000000
C      2.31877900    -2.17761800    -0.00000000
C      2.26395700    -0.78660300    -0.00000000
C      1.03066500    -0.08779700    -0.00000000
H      3.03141000     4.12179800     0.00000200
H      3.10344800     1.67320000     0.00000100
H     -1.25391100     4.02125000    -0.00000000
H      0.81579400     5.31544400     0.00000100
H     -2.79424000    -1.87900800    -0.00000100
H     -5.31387800     3.09463700    -0.00000100
H     -7.44781000     1.80669900    -0.00000000
H     -8.58848600    -0.02734500     0.00000100
H     -8.84404800    -2.51266800     0.00000200
H     -6.73849500    -3.94042000     0.00000100
H     -4.53285100    -2.81550600     0.00000000
H     -2.85797500     3.08918200    -0.00000100
H     -0.96270500    -3.13734700    -0.00000100
H      1.29163700    -4.07515000    -0.00000000
H      3.29782000    -2.66684400     0.00000000
H      3.22085300    -0.25309200     0.00000000
