042
BNPAH_000209_PAH61   C24_H16_N01_B01 -1003.24644090     6.16600000     2.84472000  5298.91104856     8.44435227   229.78252927 22170.64382718    30.80762238     0.04909507     1.33594494   128.89909204    -4.85630000    -0.17846573  -111.98893931  -468.56172208    -2.21150000    -0.08127113   -50.99840193  -213.37731367     2.64480000     0.09719461    60.99053738   255.18440841
C     -2.72800300     3.86058400    -0.61791100
C     -1.40520400     3.76308200    -0.29034800
C     -3.59916000     2.72027000    -0.56758900
C     -0.77914100     2.49157300    -0.07620300
C     -3.01273100     1.45216000    -0.21220400
C     -1.56315300     1.32507000    -0.20548200
C     -4.98329500     2.84856000    -0.80430400
C     -3.88315700     0.40389900     0.23879400
B     -5.88289400     1.69351400    -0.61159900
N     -5.25692000     0.49054600    -0.00607300
C      0.63729300     2.38931200     0.26061500
C     -0.85910600     0.06791200    -0.47298800
C      1.26924300     1.11202600     0.30313100
C      0.53461300    -0.04906400    -0.18886300
C     -6.09236600    -0.53123100     0.40236100
C     -3.43539700    -0.67842100     1.05477800
C     -5.65582700    -1.60911100     1.11962400
C     -4.28721200    -1.66387200     1.49184800
C     -1.49618400    -1.00896300    -1.14391900
C      1.18683400    -1.27423800    -0.47148000
C     -0.82866800    -2.18785800    -1.43300400
C      0.52106400    -2.33505500    -1.06516800
C      1.39629200     3.52814500     0.62993400
C      2.71182700     3.41846100     1.05441800
C      2.60654300     1.02513000     0.75576900
C      3.32171700     2.15375300     1.12769000
H      0.93317000     4.51514500     0.61360200
H      3.26570600     4.31408500     1.34568900
H      3.08987800     0.04941600     0.82241500
H      4.35198600     2.05753100     1.47814400
H     -3.16513200     4.82932200    -0.87165600
H     -0.79800700     4.66859000    -0.26594600
H     -5.34003900     3.84206000    -1.09383400
H     -7.06815000     1.62094500    -0.80852900
H     -7.13696200    -0.38575000     0.12876700
H     -6.36517400    -2.37996700     1.42266800
H     -3.91677200    -2.46755200     2.13118000
H     -2.38845300    -0.69194500     1.35019600
H     -2.53119800    -0.89223700    -1.46544200
H     -1.34698900    -2.99045900    -1.96293600
H      1.05549000    -3.26262400    -1.28346200
H      2.25101800    -1.37618200    -0.25555300
