038
BNPAH_000281_PAH47   C22_H14_N01_B01  -925.81864720     0.00000000     8.53564000  4801.10521969     7.65104818   208.19562558 20087.82423918    30.38674190     0.04842436     1.31769383   127.13812811    -4.13840000    -0.15208340   -95.43377189  -399.29490160    -2.70890000    -0.09955024   -62.46871851  -261.36911825     1.42950000     0.05253316    32.96505338   137.92578336
C      2.05375900     1.16300800    -0.00000600
C      0.94243000     2.03925700    -0.00001100
C     -0.33131400     1.52290600    -0.00000800
C     -0.62645400     0.13173600    -0.00000100
N      0.52207600    -0.69602500     0.00000200
C      0.42061000    -2.08101100     0.00000600
C     -0.79493300    -2.66552600     0.00000600
C     -1.99950300    -1.89625800     0.00000300
C     -3.20287300    -2.59015400     0.00000200
C     -4.42939200    -1.92403700    -0.00000100
C     -4.46485200    -0.48315800     0.00000100
C     -3.22276600     0.30287600     0.00000400
B     -3.43300800     1.84726000     0.00001000
C     -4.81804800     2.38300900     0.00000900
C     -5.95134900     1.54582100     0.00000400
C     -5.77554800     0.11488000     0.00000000
C     -6.96276200    -0.69955200    -0.00000400
C     -6.85208900    -2.12639500    -0.00000600
C     -5.62544000    -2.71554200    -0.00000400
C     -8.24263900    -0.11636200    -0.00000500
C     -8.39598000     1.27423700    -0.00000200
C     -7.26882700     2.08302700     0.00000200
C     -1.96020100    -0.44534000     0.00000200
C      1.80320400    -0.17695600    -0.00000000
H      3.08370400     1.52049500    -0.00000700
H      1.08660700     3.12131200    -0.00001600
H     -2.58657900     2.70210300     0.00001700
H      1.36555700    -2.62170700     0.00000700
H     -0.86160200    -3.75475500     0.00000700
H     -3.18520800    -3.68294700     0.00000200
H     -1.18732300     2.18735900    -0.00001200
H     -5.02099500     3.46121700     0.00001300
H     -7.76617400    -2.72620400    -0.00000800
H     -5.52124900    -3.80367900    -0.00000500
H     -9.11780800    -0.77144600    -0.00000800
H     -9.39516200     1.71737300    -0.00000300
H     -7.37388100     3.17151500     0.00000500
H      2.59162300    -0.92906600     0.00000300
