042
BNPAH_000403_PAH59   C24_H16_N01_B01 -1003.17294885     0.00000000    17.46398000  5252.79407975     8.37086020   227.78270824 21977.69042967    30.53950046     0.04866779     1.32431807   127.77726992    -3.96090000    -0.14556039   -91.34052462  -382.16875501    -3.42530000    -0.12587745   -78.98929511  -330.49121072     0.53560000     0.01968294    12.35122952    51.67754429
C      2.14056400     3.46536700     0.00000200
C      2.09565300     2.09878800     0.00000100
N      0.91662700     1.37931800     0.00000000
C     -0.30248800     2.06388600     0.00000000
C     -0.25225000     3.48359400     0.00000000
C      0.92790000     4.18916000     0.00000100
C     -1.54596300     1.34361600    -0.00000000
C     -1.53817600    -0.09645500    -0.00000000
C     -2.76080500    -0.77144800    -0.00000000
C     -4.01110800    -0.13002400    -0.00000000
C     -4.01414600     1.32588500    -0.00000100
C     -5.24928400     2.02601000    -0.00000200
C     -6.43434400     1.31698100    -0.00000200
C     -6.49161800    -0.09911600    -0.00000000
C     -7.75681300    -0.75349700     0.00000000
C     -7.89684500    -2.13114900     0.00000100
B     -6.65555100    -3.02198500     0.00000200
C     -5.33153100    -2.28236400     0.00000100
C     -5.26403000    -0.87538100     0.00000000
C     -2.78479900     2.00504700    -0.00000100
C     -0.26087300    -0.78153700    -0.00000000
C     -0.17270800    -2.19877400    -0.00000100
C      1.03894500    -2.86325700    -0.00000100
C      2.23614800    -2.12628400    -0.00000100
C      2.19382500    -0.74099000    -0.00000100
C      0.96014700    -0.05229900    -0.00000000
H      3.11135400     3.96134200     0.00000300
H      3.00816800     1.51588000     0.00000200
H     -1.19882400     4.01779700     0.00000000
H      0.92392300     5.28019000     0.00000200
H     -2.76302100    -1.85895900     0.00000000
H     -5.24552500     3.11875500    -0.00000300
H     -7.38366200     1.86223600    -0.00000200
H     -8.63793700    -0.09729800    -0.00000000
H     -8.92357900    -2.51972900     0.00000200
H     -6.71570600    -4.23485300     0.00000300
H     -4.38083800    -2.82951700     0.00000200
H     -2.83114200     3.09474800    -0.00000200
H     -1.09347900    -2.78014800    -0.00000100
H      1.06246200    -3.95474600    -0.00000100
H      3.20275200    -2.63331600    -0.00000200
H      3.14587800    -0.21546500    -0.00000100
