018
BNPAH_000893_PAH01   C04_H08_N03_B03  -395.90008239     0.00000000     4.50370000  1936.15918698     3.08546606    83.95980815  8100.89003832    28.47292922     0.04537450     1.23470306   119.13073586    -4.72830000    -0.17376182  -109.03718917  -456.21159947    -1.88580000    -0.06930187   -43.48758144  -181.95204075     2.84250000     0.10445995    65.54960772   274.25955872
B      0.00000000     1.25431000     1.48265000
C     -0.00000000     2.50736500     0.67345600
N      0.00000000     2.45906300    -0.69904700
C      0.00000000     1.33461200    -1.42937900
C     -0.00000000    -1.33236300    -1.45066300
N     -0.00000000    -2.47385000    -0.73962900
B      0.00000000    -2.54321500     0.71654200
C      0.00000000    -1.22361100     1.42504000
N      0.00000000    -0.03056500     0.75520000
B      0.00000000    -0.00766900    -0.72476400
H     -0.00000000     1.23797300     2.68750400
H     -0.00000000     3.52295800     1.07381200
H      0.00000000     3.34948400    -1.19747000
H      0.00000000     1.48753300    -2.51131300
H     -0.00000000    -1.44518200    -2.54040300
H     -0.00000000    -3.34491300    -1.27044900
H     -0.00000000    -3.62932000     1.23336800
H      0.00000000    -1.12261000     2.51554500
