042
BNPAH_000384_PAH73   C24_H16_N01_B01 -1003.24294583     0.00000000     3.70405000  5296.71785295     8.44085719   229.68742331 22161.46749674    30.79487124     0.04907475     1.33539200   128.84574127    -4.69110000    -0.17239475  -108.17933678  -452.62234509    -2.96360000    -0.10891029   -68.34224009  -285.94393253     1.72750000     0.06348445    39.83709669   166.67841255
C      8.04934500    -0.10094100    -0.00000200
C      6.86549800    -0.80647400    -0.00000200
C      5.60921100    -0.12976200    -0.00000000
C      4.38076500    -0.82389700     0.00000000
C      3.15417300    -0.15251800     0.00000100
C      1.88750400    -0.81497800     0.00000100
C      0.69016100    -0.12228000     0.00000100
C      0.70962500     1.33229000     0.00000200
N      1.93860400     1.92901200     0.00000300
C      3.15837100     1.28754400     0.00000200
C      4.35488900     1.99441500     0.00000200
C      5.59519800     1.31431200     0.00000100
C      6.83957700     2.00925100     0.00000000
C      8.03449700     1.32035900    -0.00000100
C     -0.46407200     2.11386700     0.00000200
B     -0.46736300     3.64126700     0.00000200
C     -1.83077200     4.34677400     0.00000100
C     -1.97730800     5.75444300     0.00000000
C     -3.22812100     6.36378500    -0.00000100
C     -4.39024500     5.56621200    -0.00000200
C     -4.29050900     4.18148800    -0.00000200
C     -3.02278500     3.54376700    -0.00000100
C     -2.93468300     2.11207100    -0.00000000
C     -1.73749700     1.41167800     0.00000100
C     -1.74929000    -0.03445200     0.00000000
C     -0.60078800    -0.76656200     0.00000100
H      9.00444800    -0.63113600    -0.00000400
H      6.87138300    -1.89959200    -0.00000300
H      4.38513500    -1.91709500    -0.00000100
H      1.87209100    -1.90834100     0.00000000
H      1.91831900     2.94963400     0.00000300
H      4.34145800     3.08747300     0.00000200
H      6.83155400     3.10226400     0.00000100
H      8.97950200     1.86882800    -0.00000200
H      0.55947900     4.29809600     0.00000300
H     -1.07535500     6.37385600     0.00000100
H     -3.31433500     7.45335500    -0.00000100
H     -5.37544800     6.04049000    -0.00000300
H     -5.19612800     3.56776100    -0.00000300
H     -3.87045700     1.54447400    -0.00000100
H     -2.71797700    -0.54195200    -0.00000000
H     -0.62998300    -1.85880800     0.00000000
