042
BNPAH_000482_PAH55   C24_H16_N01_B01 -1003.17500061     0.00500000     8.25992000  5254.08157724     8.37291196   227.83853942 21983.07731917    30.54698591     0.04867972     1.32464267   127.80858905    -4.87020000    -0.17897655  -112.30948093  -469.90286820    -2.64510000    -0.09720563   -60.99745555  -255.21335401     2.22510000     0.08177092    51.31202538   214.68951420
C      2.73592900    -0.38784100    -0.00049700
C      2.49843400    -1.74439100     0.00027300
C      1.17780700    -2.26598400     0.00035500
C      1.02793400    -3.67224400     0.00090100
C     -0.21275500    -4.23173200     0.00078800
C     -1.39545900    -3.43476100     0.00030400
N     -2.64473500    -4.14436500     0.00009100
C     -2.65694100    -5.53127100     0.00016400
C     -3.79319800    -6.28298900    -0.00010700
C     -5.04453900    -5.62035100    -0.00048800
C     -5.05197200    -4.25376500    -0.00056000
C     -3.85927700    -3.45535800    -0.00027700
C     -3.87858900    -2.03645500    -0.00023200
C     -5.15538900    -1.39882800    -0.00039300
C     -5.35340500    -0.02613400    -0.00010700
C     -6.65745600     0.57271100    -0.00023900
C     -6.78048200     1.94161500     0.00015800
C     -5.64240900     2.83048800     0.00073000
C     -4.34162800     2.38290700     0.00091900
B     -4.10187600     0.86259000     0.00047800
C     -2.76977100     0.13173700     0.00056700
C     -2.62681900    -1.25472700     0.00010500
C     -1.34700700    -2.01367200     0.00005800
C      0.01167100    -1.41710200    -0.00020300
C      0.32717400    -0.02387100    -0.00116300
C      1.62191500     0.46991700    -0.00128200
H      3.75329800     0.00928200    -0.00059100
H      3.32646500    -2.45792100     0.00078000
H      1.91614900    -4.30749300     0.00129500
H     -0.24854400    -5.31451500     0.00110600
H     -1.69767100    -6.02575300     0.00042700
H     -3.70749500    -7.36963100    -0.00003100
H     -5.98090800    -6.18083300    -0.00071400
H     -6.00558100    -3.73766700    -0.00083500
H     -6.04802600    -2.02773700    -0.00069700
H     -7.55826700    -0.05479200    -0.00064400
H     -7.77882700     2.39022700     0.00005400
H     -5.86478900     3.90523200     0.00101800
H     -3.54541400     3.13864500     0.00136100
H     -0.44384400     0.72679200    -0.00197200
H     -1.89176000     0.75696200     0.00113700
H      1.76496500     1.55306800    -0.00203500
