042
BNPAH_000491_PAH70   C24_H16_N01_B01 -1003.22616667     0.00000000     8.34048000  5286.18876945     8.42407802   229.23083904 22117.41381138    30.73365564     0.04897720     1.33273744   128.58961520    -4.43320000    -0.16291710  -102.23202145  -427.73877773    -2.40170000    -0.08826085   -55.38451816  -231.72882398     2.03150000     0.07465625    46.84750329   196.00995375
C      2.87635800    -0.60642000    -0.00000400
C      2.70937000    -1.98247400    -0.00000100
C      1.41914300    -2.56566400     0.00000000
C      1.26114500    -3.99710600     0.00000300
C      0.02482800    -4.57098100     0.00000400
C     -1.16886400    -3.76790600     0.00000200
C     -2.44254400    -4.35297300     0.00000300
C     -3.62213100    -3.59078700     0.00000100
C     -4.88831400    -4.28009600     0.00000000
C     -6.09548200    -3.63376600    -0.00000200
C     -6.18625100    -2.20383700    -0.00000200
C     -7.47605300    -1.60500100    -0.00000500
C     -7.66577800    -0.23904900    -0.00000400
C     -6.55358900     0.65160200    -0.00000100
C     -6.80960200     2.02584000     0.00000000
N     -5.81176300     2.92640100     0.00000400
C     -4.49077600     2.55027800     0.00000700
C     -4.18565700     1.20902400     0.00000600
C     -5.16513600     0.17655500     0.00000100
B     -4.90914700    -1.35247700    -0.00000000
C     -3.55065800    -2.14371000     0.00000000
C     -2.25840700    -1.59025500    -0.00000100
C     -1.06509000    -2.33726000    -0.00000000
C      0.26187900    -1.72438200    -0.00000100
C      0.46754800    -0.32335400    -0.00000400
C      1.74173500     0.22754500    -0.00000600
H      3.87880100    -0.17157900    -0.00000500
H      3.58079300    -2.64319800     0.00000000
H      2.16203000    -4.61663500     0.00000400
H     -0.08302700    -5.65905500     0.00000600
H     -2.51765000    -5.44496900     0.00000400
H     -4.86113800    -5.37408500     0.00000100
H     -7.01673600    -4.22968000    -0.00000300
H     -8.36222400    -2.25248800    -0.00000600
H     -8.67464600     0.18259400    -0.00000600
H     -7.82455100     2.42793200    -0.00000200
H     -6.04275100     3.91608100     0.00000500
H     -3.75593300     3.35386200     0.00001100
H     -2.15586600    -0.50769600    -0.00000300
H     -3.12738800     0.95721100     0.00000900
H     -0.39252900     0.34816400    -0.00000600
H      1.86259000     1.31382400    -0.00000800
