042
BNPAH_000599_PAH60   C24_H16_N01_B01 -1003.23553502     0.03200000     2.14058000  5292.06750042     8.43344638   229.48576494 22142.01042176    30.76783430     0.04903166     1.33421956   128.73261871    -5.07660000    -0.18656161  -117.06917804  -489.81744091    -2.30670000    -0.08476966   -53.19376610  -222.56271736     2.76990000     0.10179195    63.87541194   267.25472355
C     -2.73424000    -0.01803400    -0.00077200
C     -2.64843700     1.38459900     0.00315600
C     -1.42014700     2.03490200     0.00379000
C     -0.20628100     1.30815900     0.00064600
C     -0.30263200    -0.10638100    -0.00336000
C      0.91522800    -0.83940900    -0.00739900
C      2.11163200    -0.19477900    -0.00631900
C      2.28332100     1.23233500    -0.00102000
C      3.58149300     1.88668300     0.00058300
C      4.92044700     1.19234700     0.00186000
C      5.16186100    -0.21319500     0.00612900
C      6.41632800    -0.81026200     0.00667000
C      7.56838600    -0.02689400     0.00319600
C      7.39864200     1.34507800     0.00031100
C      6.13215000     1.97570000    -0.00002300
C      6.11156200     3.44105300    -0.00158100
C      7.29959600     4.21505800    -0.00343100
C      7.27225600     5.60011900    -0.00400400
C      6.03773900     6.26473200    -0.00261600
C      4.86599400     5.52497900    -0.00078900
C      4.86790900     4.10725100    -0.00029600
C      3.60518100     3.33958500     0.00108200
C      2.41357400     4.06029300     0.00271600
B      1.08965000     3.42083700     0.00382900
N      1.06692900     1.96055700     0.00124600
C     -1.56112900    -0.75133600    -0.00406000
H     -3.70598900    -0.51608900    -0.00129600
H     -3.55951100     1.98747800     0.00576600
H     -1.40840400     3.11894200     0.00687100
H      0.88649600    -1.93144400    -0.01172700
H      4.36925800    -0.93912400     0.01058000
H      2.97366100    -0.82775700    -0.01102900
H      6.47722400    -1.90122500     0.01013700
H      8.56657000    -0.46957100     0.00351000
H      8.29238100     1.96451200    -0.00142500
H      8.27381000     3.73005100    -0.00437000
H      8.20841700     6.16343100    -0.00544300
H      5.99287900     7.35620500    -0.00300600
H      3.92571100     6.07126900     0.00012500
H      2.46339000     5.14698400     0.00347000
H      0.08002800     4.05636500     0.00563000
H     -1.58102400    -1.84400400    -0.00733600
