042
BNPAH_000105_PAH63   C24_H16_N01_B01 -1003.20173964     0.01800000     2.97722000  5270.86057638     8.39965099   228.56614568 22053.28065157    30.64453823     0.04883518     1.32887294   128.21674795    -4.93210000    -0.18125133  -113.73692885  -475.87531031    -2.53820000    -0.09327713   -58.53228296  -244.89907192     2.39390000     0.08797420    55.20464589   230.97623839
C      2.59812200    -0.00237600     0.00194100
C      2.45482500    -1.35983300    -0.00020400
C      1.17055700    -2.00696700    -0.00064100
C      1.17775800    -3.39882200    -0.00200000
B     -0.08415200    -4.13496000    -0.00183200
N     -1.35207700    -3.36507300    -0.00074000
C     -2.56564200    -4.12819400    -0.00030000
C     -2.47707300    -5.54312400    -0.00043600
C     -3.58054900    -6.37502200     0.00002500
C     -4.85095800    -5.80250900     0.00060000
C     -4.95776400    -4.42441600     0.00075900
C     -3.85684100    -3.52398700     0.00044900
C     -3.97025300    -2.05871500     0.00018200
C     -5.25367800    -1.31294300     0.00043600
C     -6.58738400    -1.84074400     0.00279400
C     -7.73047700    -1.05794100     0.00258600
C     -7.66558500     0.34676500    -0.00002000
C     -6.41497100     0.91990700    -0.00223700
C     -5.23672400     0.12733800    -0.00194100
C     -3.99482000     0.79261900    -0.00419100
C     -2.83014800     0.09287400    -0.00365600
C     -2.73228500    -1.33102800    -0.00100500
C     -1.37976100    -1.96299400    -0.00033000
C     -0.08374100    -1.25130200     0.00062700
C      0.16549800     0.17546700     0.00347800
C      1.41179500     0.76474300     0.00400500
H      3.58158300     0.47303600     0.00237900
H      3.32751500    -2.01705700    -0.00147300
H      2.15068900    -3.89837600    -0.00280800
H     -0.05990000    -5.32197100    -0.00261400
H     -1.50520600    -6.01140400    -0.00090500
H     -3.43835900    -7.45773600    -0.00012300
H     -5.75526400    -6.41464100     0.00087400
H     -6.80124200    -2.89480400     0.00508600
H     -5.96239900    -4.05136300     0.00098800
H     -8.70075600    -1.56041100     0.00452900
H     -8.57270200     0.95467100    -0.00018900
H     -6.29393700     2.00610300    -0.00422600
H     -3.97163500     1.88492100    -0.00627500
H     -0.60433100     0.92454200     0.00589400
H     -1.94842400     0.68955400    -0.00568200
H      1.46338300     1.85615300     0.00619400
