042
BNPAH_000568_PAH51   C24_H16_N01_B01 -1003.21032306     0.00100000     7.93134000  5276.24675614     8.40823442   228.79971254 22075.81642769    30.67585323     0.04888508     1.33023089   128.34776991    -4.81890000    -0.17709131  -111.12647482  -464.95317063    -1.96180000    -0.07209482   -45.24018309  -189.28492605     2.85710000     0.10499649    65.88629173   275.66824458
C     -2.88961400    -3.13900200     0.00000800
C     -2.76378700    -1.76766500     0.00000100
C     -1.47194800    -1.15927900    -0.00000000
C     -0.30322300    -1.99344000     0.00000600
C     -0.47350600    -3.41222800     0.00001300
C     -1.73260300    -3.97026600     0.00001400
C      0.97916100    -1.40635300     0.00000400
C      1.21398100    -0.02627100    -0.00000300
C      0.01298000     0.80046500    -0.00000600
C      0.10888000     2.22978200    -0.00000800
C      1.32710900     2.82259800    -0.00000500
C      2.53927500     2.04866500    -0.00000200
C      3.74298900     2.79118900     0.00000200
C      4.95815000     2.16805300     0.00000500
C      5.05152900     0.75096700     0.00000000
C      6.41210700     0.17520700     0.00000200
C      7.53621100     0.98234700     0.00001300
N      8.80285600     0.48238500     0.00001400
C      9.05327500    -0.86900400     0.00000500
C      8.00239900    -1.73190700    -0.00000700
C      6.63625900    -1.26820300    -0.00000800
C      5.55292000    -2.12624500    -0.00002000
B      4.14116100    -1.61087300    -0.00002100
C      3.86118700    -0.06110700    -0.00000700
C      2.55819300     0.61733200    -0.00000400
C     -1.26525600     0.22882000    -0.00000600
H     -3.88131400    -3.59842300     0.00000900
H     -3.64977900    -1.12692300    -0.00000300
H      0.41625200    -4.04727500     0.00001700
H     -1.85092400    -5.05665600     0.00001900
H      3.31569700    -2.47480200    -0.00003500
H     -0.81148800     2.81906700    -0.00001100
H      1.42184500     3.91159800    -0.00000500
H      3.68276600     3.88260500     0.00000400
H      5.84871200     2.79549000     0.00000900
H      7.49406500     2.06887400     0.00002200
H      9.58080300     1.13260700     0.00002300
H     10.10092300    -1.16957100     0.00000700
H      8.19144400    -2.80662100    -0.00001500
H      5.77496500    -3.19974000    -0.00003000
H      1.81938100    -2.08423700     0.00000900
H     -2.13055100     0.89806800    -0.00000900
