042
BNPAH_000101_PAH64   C24_H16_N01_B01 -1003.22933473     5.25200000     4.02188000  5288.17675922     8.42724609   229.31704643 22125.73156058    30.74521372     0.04899562     1.33323864   128.63797420    -5.14680000    -0.18914141  -118.68802851  -496.59071128    -2.08280000    -0.07654149   -48.03050940  -200.95965133     3.06400000     0.11259992    70.65751911   295.63105995
N    -12.26944000    -7.46807000    10.90805300
C    -11.19077000    -6.71890100    10.53276500
C    -13.55213900    -7.05069700    10.82952100
C    -11.35121800    -5.46651300     9.96993600
B    -13.84832300    -5.67492000    10.27176500
C    -12.62998200    -4.89674100     9.74569000
C    -15.20394000    -4.96308300    10.30613800
C    -12.81263000    -3.56063500     9.19887900
C    -15.20703600    -3.62993400    10.00130300
C    -14.05222600    -2.91392700     9.50158200
C    -11.80442200    -2.79876300     8.47957100
C    -14.15912400    -1.49844600     9.35510600
C    -13.08519800    -0.74310200     8.96003900
C    -11.89332400    -1.37414700     8.49833300
C    -10.80312300    -0.59354600     8.01485100
C    -10.74951400    -3.38651100     7.67068200
C     -9.65750400    -2.58664000     7.22302800
C     -9.69471700    -1.18042400     7.46085000
C    -10.84312000    -4.73356200     7.17883500
C     -9.86336200    -5.29209300     6.40578100
C     -8.56975000    -3.19760800     6.47256300
C     -8.67702500    -4.56562400     6.06975600
C     -7.62901400    -5.16427800     5.32546100
C     -7.39367200    -2.49155500     6.10924300
C     -6.49339000    -4.44823800     4.98976300
C     -6.37682400    -3.10048600     5.39068600
H     -7.73470400    -6.20917800     5.02098900
H     -7.27026900    -1.45049500     6.41073200
H     -5.69064600    -4.92140000     4.41909200
H     -5.47940700    -2.53177400     5.13514600
H    -14.27265500    -7.77687800    11.21797700
H    -10.43368900    -4.92456100     9.72992400
H    -12.07055900    -8.38760300    11.29813200
H    -10.21405800    -7.16648500    10.71480400
H    -16.14314300    -5.41798200    10.64229000
H    -16.11478200    -3.02453300    10.11807300
H    -15.10343000    -1.01902200     9.62687500
H    -13.14331500     0.34826100     8.94049300
H    -10.86850700     0.49493200     8.09314700
H     -8.87163800    -0.55006800     7.12348700
H    -11.74184300    -5.30761700     7.40126600
H     -9.98040900    -6.30986400     6.02402000
