042
BNPAH_000441_PAH74   C24_H16_N01_B01 -1003.21252754     0.00000000     3.86741000  5277.63008499     8.41043889   228.85969935 22081.60427560    30.68389584     0.04889790     1.33057965   128.38142019    -4.62380000    -0.16992152  -106.62736190  -446.12888218    -2.74490000    -0.10087322   -63.29889824  -264.84259023     1.87890000     0.06904830    43.32846366   181.28629195
C      8.13323200    -2.87593500     0.00000200
C      6.96606400    -3.59787800     0.00000100
C      5.69102200    -2.94106200     0.00000000
C      4.48516900    -3.65029700    -0.00000100
C      3.23773600    -2.99249500    -0.00000100
C      2.00153300    -3.68160900    -0.00000200
C      0.77009300    -3.02870000    -0.00000200
C      0.73954600    -1.57718200    -0.00000200
C      1.95577400    -0.88136100    -0.00000100
C      3.20514600    -1.54325400    -0.00000100
C      4.42530300    -0.83126900    -0.00000000
C      5.65949700    -1.48765300     0.00000000
C      6.90500600    -0.77533800     0.00000100
C      8.10219600    -1.44575000     0.00000200
C     -0.53202800    -0.85330700    -0.00000200
N     -1.74419100    -1.54272100    -0.00000100
C     -1.78417400    -2.92655600    -0.00000100
B     -0.56749900    -3.77977200    -0.00000200
C     -2.97071600    -0.79980900     0.00000000
C     -4.22716700    -1.44809900     0.00000300
C     -5.40872000    -0.72007000     0.00000400
C     -5.39211600     0.68733100     0.00000200
C     -4.17565300     1.34177700     0.00000000
C     -2.95182900     0.62499100    -0.00000100
C     -1.70285700     1.30356200    -0.00000200
C     -0.55272800     0.56639000    -0.00000300
H      9.09697800    -3.39088800     0.00000300
H      6.98872900    -4.69081100     0.00000100
H      4.50643900    -4.74371200    -0.00000100
H      2.01146800    -4.77532300    -0.00000200
H      1.99147100     0.20831000    -0.00000100
H      4.40255900     0.26252900    -0.00000000
H      6.88027700     0.31767200     0.00000100
H      9.04265200    -0.88932100     0.00000300
H     -2.78947100    -3.33196200    -0.00000200
H     -0.64207200    -4.98520000    -0.00000300
H     -4.30379500    -2.53146900     0.00000400
H     -6.35981100    -1.25679100     0.00000600
H     -6.32724200     1.25131000     0.00000300
H     -4.12875500     2.43343000    -0.00000100
H     -1.67641300     2.39443800    -0.00000300
H      0.40275900     1.08384700    -0.00000400
