042
BNPAH_000087_PAH63   C24_H16_N01_B01 -1003.19927022     4.31900000     6.39902000  5269.31099106     8.39718157   228.49894930 22046.79718660    30.63552902     0.04882082     1.32848226   128.17905342    -4.92420000    -0.18096101  -113.55475052  -475.11307618    -2.71100000    -0.09962741   -62.51714566  -261.57173744     2.21320000     0.08133360    51.03760486   213.54133874
C      2.25043200     0.25926600     0.37784200
C      2.29927500    -1.11705400     0.18029500
C      1.12948600    -1.90337600     0.06996100
B      1.19640900    -3.44634200     0.08618000
C     -0.12346100    -4.17276700     0.21037400
C     -1.33287900    -3.49577500     0.10689600
C     -2.61991000    -4.20612000    -0.00211100
C     -2.68597300    -5.61929600    -0.01570900
C     -3.87293600    -6.30603200    -0.22174800
C     -5.05185400    -5.58740800    -0.47271900
C     -5.03193600    -4.20045300    -0.45030000
C     -3.83849400    -3.50039700    -0.16352900
N     -3.82018300    -2.08823300    -0.15675300
C     -4.99235800    -1.31855200     0.05656500
C     -6.05565200    -1.78108400     0.85532700
C     -7.20095400    -1.00427800     1.02100400
C     -7.31587900     0.24886300     0.40013700
C     -6.24651500     0.74047500    -0.33922900
C     -5.06522200    -0.01317000    -0.49775200
C     -3.89023200     0.50501200    -1.14803300
C     -2.70177500    -0.13666800    -0.99549500
C     -2.59736500    -1.42423600    -0.34346700
C     -1.37506100    -2.04526700    -0.03428500
C     -0.14306500    -1.25184900     0.10788700
C     -0.17219600     0.13496600     0.40858600
C      0.99912900     0.87789400     0.52589400
H      3.16906600     0.84533500     0.46376100
H      3.26662700    -1.62543000     0.13517700
H      2.26213100    -4.01955300     0.04574500
H     -0.16187400    -5.26175500     0.29565700
H     -1.76625700    -6.18595800     0.12274500
H     -3.87908500    -7.39805100    -0.22388300
H     -5.98283200    -6.10872600    -0.70637000
H     -5.97553300    -2.73969300     1.36691400
H     -5.93954000    -3.64816300    -0.68905200
H     -8.00800600    -1.37776900     1.65533600
H     -8.22292700     0.84419100     0.52267500
H     -6.29400100     1.73471500    -0.79027100
H     -3.95344400     1.43982400    -1.70924800
H     -1.12131000     0.63499300     0.60827100
H     -1.78853000     0.27386700    -1.42364800
H      0.93737500     1.94403200     0.76037500
