042
BNPAH_000591_PAH72   C24_H16_N01_B01 -1003.18775222     0.00000000    14.19592000  5262.08333782     8.38566357   228.18552859 22016.55668544    30.59350778     0.04875386     1.32666005   128.00323655    -3.89300000    -0.14306511   -89.77471341  -375.61740091    -3.03710000    -0.11161137   -70.03719037  -293.03560450     0.85590000     0.03145375    19.73752304    82.58179641
C      2.86239200     0.16055300    -0.00000100
C      2.77743400    -1.24928000    -0.00000100
C      1.53991900    -1.87167300    -0.00000000
C      0.33724300    -1.10854500     0.00000000
C     -0.92443600    -1.77413900     0.00000100
C     -2.15945300    -1.11717800     0.00000100
C     -2.20023300     0.33370800     0.00000100
C     -3.46164200     0.96718300     0.00000100
C     -4.66652700     0.27640100     0.00000100
C     -4.67878000    -1.13818800     0.00000100
C     -3.41820200    -1.86718200     0.00000100
C     -3.48200700    -3.26548100     0.00000100
C     -4.69203300    -3.97724100     0.00000100
C     -4.73362100    -5.39688300     0.00000100
C     -5.91971300    -6.07865900     0.00000000
N     -7.13167800    -5.41007200    -0.00000000
C     -8.30414500    -6.15202300    -0.00000000
C     -9.53687000    -5.56220200    -0.00000100
C     -9.63141200    -4.14966700    -0.00000100
C     -8.46302200    -3.41037800    -0.00000100
C     -7.18406600    -4.00570500    -0.00000000
C     -5.94425300    -3.25609800     0.00000000
C     -5.89559300    -1.86206700     0.00000000
B     -0.90028600     1.13171300     0.00000000
C      0.41255700     0.32876100    -0.00000000
C      1.69789400     0.92130200    -0.00000100
H      3.84200200     0.64614200    -0.00000200
H      3.69118900    -1.85012500    -0.00000100
H      1.47674700    -2.96454800     0.00000000
H     -0.88969900    -2.86649000     0.00000100
H     -3.48001400     2.06148900     0.00000100
H     -5.61938400     0.81232900     0.00000100
H     -2.56106700    -3.85016600     0.00000100
H     -3.80364700    -5.96800700     0.00000100
H     -5.99113500    -7.16512300     0.00000000
H     -8.15904300    -7.23182500    -0.00000000
H    -10.42479400    -6.19551500    -0.00000100
H    -10.60310500    -3.65473200    -0.00000100
H     -8.51043800    -2.32276400    -0.00000100
H     -6.81622400    -1.27568600     0.00000000
H     -0.90554300     2.34466100     0.00000000
H      1.76626100     2.01337700    -0.00000100
