042
BNPAH_000548_PAH59   C24_H16_N01_B01 -1003.24659911     0.00000000     3.86009000  5299.01032352     8.44451047   229.78683424 22171.05919361    30.80819956     0.04909599     1.33596997   128.90150696    -5.15120000    -0.18930311  -118.78949492  -497.01524674    -2.00650000    -0.07373752   -46.27098959  -193.59782043     3.14470000     0.11556559    72.51850533   303.41742632
C      2.15033100     3.50585500     0.00000100
C      2.13954600     2.11796000     0.00000000
C      0.93412800     1.37732100    -0.00000000
C     -0.29709900     2.08992700    -0.00000000
C     -0.26044700     3.50446200     0.00000000
C      0.93522700     4.20755000     0.00000100
C     -1.56745400     1.35505100    -0.00000000
C     -1.55695200    -0.07959600    -0.00000000
C     -2.78510500    -0.75996200    -0.00000000
C     -4.02723700    -0.11037300    -0.00000000
C     -4.02975500     1.32200100    -0.00000000
C     -5.28038700     2.03095600    -0.00000100
C     -6.46866900     1.36099500    -0.00000000
C     -6.51738200    -0.07787600    -0.00000000
C     -7.75740600    -0.76179800     0.00000000
C     -7.81022400    -2.14670500     0.00000100
C     -6.61267600    -2.88843900     0.00000100
C     -5.38593700    -2.23935700     0.00000000
C     -5.30002900    -0.82682200     0.00000000
C     -2.80390800     2.00985100    -0.00000000
C     -0.30137200    -0.83314100    -0.00000000
B     -0.24752300    -2.36614600    -0.00000000
C      1.12578700    -2.96570900    -0.00000000
N      2.20163500    -2.13501400    -0.00000000
C      2.14469900    -0.78985900    -0.00000000
C      0.92104700    -0.09815700    -0.00000000
H      3.10108800     4.04406800     0.00000100
H      3.09959600     1.60084900     0.00000000
H     -1.19428600     4.06683100     0.00000000
H      0.92691900     5.30002700     0.00000100
H     -2.74567300    -1.84681800    -0.00000000
H     -5.25919300     3.12405700    -0.00000100
H     -7.41398400     1.91013700    -0.00000100
H     -8.67966500    -0.17443100     0.00000000
H     -8.77402300    -2.66138000     0.00000100
H     -6.64681500    -3.98058800     0.00000100
H     -4.47316400    -2.83692700     0.00000000
H     -2.84694400     3.10000400    -0.00000100
H     -1.21082100    -3.09070800    -0.00000000
H      1.39550600    -4.02463000    -0.00000000
H      3.13544700    -2.54219100    -0.00000000
H      3.11047300    -0.29125900    -0.00000000
