024
BNPAH_000085_PAH03   C12_H10_N01_B01  -542.57951777     0.00000000     5.52356000  2879.28881512     4.58843880   124.85777934 12046.94440246    30.63073208     0.04881318     1.32827425   128.15898302    -4.75090000    -0.17459236  -109.55835755  -458.39216799    -2.55860000    -0.09402682   -59.00271814  -246.86737271     2.19230000     0.08056554    50.55563941   211.52479528
C      3.59262100    -0.29756300    -0.00018000
C      2.91033000    -1.53427400    -0.00015900
C      1.52445100    -1.58491400    -0.00009000
C      0.74219300    -0.40373700    -0.00003800
C      1.44642900     0.84554600    -0.00006000
C      0.69761800     2.05137700    -0.00000900
N     -0.62731000     1.99644400     0.00005700
C     -1.40679700     0.86137700     0.00008400
B     -2.93059900     0.99212900     0.00016200
C     -3.65102400    -0.32628800     0.00018300
C     -2.90825300    -1.51350700     0.00013300
C     -1.50053600    -1.56664500     0.00006200
C     -0.71530100    -0.40420300     0.00003500
C      2.86580800     0.87802400    -0.00013100
H      4.68435600    -0.27269600    -0.00023400
H      3.48253100    -2.46521900    -0.00019800
H      1.02655300    -2.55491800    -0.00007500
H      1.16652900     3.03600600    -0.00002200
H     -1.15369300     2.87144800     0.00009300
H     -3.43376100     2.09959600     0.00019900
H     -4.74213000    -0.42883500     0.00023700
H     -3.43079300    -2.47843100     0.00014900
H     -1.01842000    -2.54578000     0.00002700
H      3.37344200     1.84626000    -0.00014600
