042
BNPAH_000231_PAH32   C24_H16_N01_B01 -1003.19489748     0.00200000     4.40576000  5266.56705669     8.39280883   228.37996105 22035.31656519    30.61957591     0.04879540     1.32779047   128.11230561    -4.75630000    -0.17479080  -109.68288451  -458.91318879    -2.58190000    -0.09488308   -59.54002891  -249.11548097     2.17440000     0.07990773    50.14285560   209.79770782
C      1.38183400    -2.35972800     0.00027500
C      0.07824200    -2.81194800    -0.00002000
C     -1.01264000    -1.91288100    -0.00008700
C     -2.32128400    -2.45518800    -0.00029200
C     -3.38787000    -1.63872000    -0.00028000
N     -3.32392700    -0.24413600    -0.00013700
C     -4.58055700     0.41653400    -0.00009600
C     -5.79630100    -0.34735700    -0.00012700
C     -7.02806000     0.24883500    -0.00005800
C     -7.24277700     1.66451900     0.00005400
C     -8.58128100     2.13253500     0.00012300
C     -8.86617300     3.48710000     0.00023800
C     -7.79785700     4.39864600     0.00028900
C     -6.48239600     3.94382100     0.00022100
C     -6.12631600     2.56779900     0.00009700
B     -4.67567800     1.93682000     0.00000600
C     -3.29972100     2.63525400    -0.00006700
C     -2.06982300     1.86948400    -0.00013900
C     -0.86397500     2.63928400    -0.00036300
C     -0.82335100     4.01956000    -0.00042300
C     -2.01520000     4.75576600    -0.00027800
C     -3.20274900     4.05387200    -0.00011700
C     -2.06681800     0.39955900    -0.00005900
C     -0.86590900    -0.48118300     0.00008500
C      0.50833500    -0.08170600     0.00045900
C      1.57470500    -0.97104100     0.00053700
H      2.22660200    -3.05121000     0.00033900
H     -0.14629300    -3.88142900    -0.00018800
H     -2.47654100    -3.53509100    -0.00041500
H     -4.37894800    -2.05962200    -0.00039400
H     -5.83904800    -1.43502600    -0.00019600
H     -7.91189700    -0.39556400    -0.00008300
H     -9.39187900     1.39789000     0.00008400
H     -9.90047600     3.84031500     0.00029100
H     -7.99462800     5.47393700     0.00038300
H     -4.12032300     4.62881200    -0.00005200
H      0.81807100     0.94733800     0.00075400
H      0.14772900     4.52072500    -0.00059600
H     -2.00857800     5.84826600    -0.00032300
H     -5.71941300     4.71757500     0.00027400
H      0.10258500     2.17603400    -0.00054700
H      2.58637300    -0.55847200     0.00082600
