038
BNPAH_000341_PAH66   C22_H14_N01_B01  -925.84611456     2.93100000     7.70051000  4818.34125531     7.67851555   208.94305082 20159.93981222    30.49583073     0.04859820     1.32242437   127.59455577    -5.03210000    -0.18492627  -116.04298365  -485.52384360    -3.08740000    -0.11345986   -71.19713593  -297.88881674     1.94470000     0.07146641    44.84584772   187.63502686
C      3.97539900    -2.99532000    -0.32435600
C      2.77126500    -3.69082000    -0.61440700
C      1.54774400    -3.06077500    -0.51834300
C      1.43220500    -1.68619600    -0.12359400
C      2.67318900    -0.95932000     0.04979400
C      3.92073400    -1.65669200    -0.02118400
C      2.64413300     0.42739000     0.25094800
C      1.44559800     1.15301400     0.21186400
C      1.44075000     2.57569800     0.31471100
C      0.25093500     3.26401100     0.26185600
C     -0.97127700     2.57180100     0.09530200
C     -1.03464000     1.18535900    -0.00921000
C     -2.31445600     0.47485500    -0.20837500
C     -3.50156300     1.11711400    -0.53478500
B     -4.84736600     0.38129500    -0.59997400
C     -4.80006500    -1.08311900    -0.22949300
C     -3.58403700    -1.69367800     0.06800800
C     -2.32060800    -0.95043200     0.02041900
C     -1.10717700    -1.63138400     0.19865600
N     -1.13721300    -2.94464200     0.58568900
C     -2.29883900    -3.66401500     0.72688800
C     -3.49533500    -3.07968500     0.44884200
C      0.19474800    -0.97843500     0.03308900
C      0.19576100     0.44144000     0.07942200
H      4.93493200    -3.51329000    -0.38608900
H      2.81467400    -4.73077300    -0.94692500
H     -0.25579700    -3.38346000     0.83172200
H      4.83817500    -1.08671600     0.14677700
H      3.58599400     0.96223200     0.40042000
H      2.39286200     3.09882100     0.43021600
H      0.23941900     4.35333900     0.34366000
H     -1.89518600     3.14971400     0.05292300
H     -3.44018000     2.19460800    -0.72529300
H     -5.86888400     0.95966700    -0.89725400
H     -5.68368000    -1.73075000    -0.16934500
H      0.66100700    -3.61210100    -0.83251200
H     -2.18115600    -4.69686100     1.05526700
H     -4.41141500    -3.66645300     0.53466500
