038
BNPAH_000212_PAH76   C22_H14_N01_B01  -925.87371071     0.00000000     5.73821000  4835.65810279     7.70611171   209.69398040 20232.39350207    30.60543103     0.04877286     1.32717709   128.05312343    -4.81840000    -0.17707294  -111.11494454  -464.90492796    -2.80190000    -0.10296793   -64.61334948  -270.34225420     2.01650000     0.07410501    46.50159507   194.56267376
C      9.40083700     1.80375600     0.00000100
C      9.23762200     0.42268300     0.00000100
C      7.97936800    -0.24047200     0.00000000
C      6.79886000     0.48549800    -0.00000000
N      5.56744500    -0.15244800    -0.00000100
C      4.35181400     0.46629300    -0.00000100
C      4.33272200     1.89382700    -0.00000100
C      5.58666600     2.58381500    -0.00000100
C      6.80863100     1.94181800    -0.00000000
B      8.17670900     2.68994200     0.00000000
C      3.09519100     2.56879400    -0.00000100
C      1.88202900     1.88148200    -0.00000100
C      0.61612600     2.56673500    -0.00000000
C     -0.56305200     1.88201400     0.00000000
C     -0.58765100     0.44150100     0.00000000
C      0.65549600    -0.27301200    -0.00000000
C      0.64657200    -1.70452100    -0.00000000
C      1.90192300    -2.39444500    -0.00000100
C      3.08792600    -1.71020200    -0.00000100
C      3.12869200    -0.27768000    -0.00000100
C      1.89583300     0.44023600    -0.00000100
C     -0.58778900    -2.38920700     0.00000000
C     -1.78857900    -1.68345800     0.00000100
C     -1.79122900    -0.28381500     0.00000100
H     10.42975400     2.17945300     0.00000200
H     10.11987600    -0.23028200     0.00000200
H      7.94661700    -1.33422600     0.00000100
H      5.58307600    -1.16791200    -0.00000100
H      5.56607300     3.67812800    -0.00000100
H      8.18814400     3.90039200     0.00000000
H      3.09746100     3.66179200    -0.00000100
H      0.62248700     3.65962800    -0.00000000
H     -1.51555700     2.41759600     0.00000100
H      1.89970300    -3.48710900    -0.00000100
H      4.01589000    -2.28819600    -0.00000200
H     -0.58959700    -3.48200100     0.00000000
H     -2.73720900    -2.22563000     0.00000200
H     -2.73861800     0.26111100     0.00000200
