038
BNPAH_000057_PAH49   C22_H14_N01_B01  -925.84806208     0.00000000     8.84704000  4819.56334051     7.68046307   208.99604545 20165.05301669    30.50356545     0.04861053     1.32275978   127.62691784    -4.66610000    -0.17147601  -107.60282308  -450.21021176    -2.98260000    -0.10960853   -68.78039050  -287.77715386     1.68350000     0.06186748    38.82243258   162.43305791
C     -7.40710800    -1.63761600     0.00000000
C     -6.27900200    -2.43215900    -0.00000000
B     -4.90612300    -1.74830800    -0.00000000
C     -4.86143200    -0.20966500    -0.00000000
C     -6.10691100     0.47520800     0.00000000
C     -7.31298000    -0.21340300     0.00000000
C     -3.58961500     0.47500900    -0.00000000
C     -2.35750300    -0.25476800    -0.00000000
C     -2.36461800    -1.71369100    -0.00000000
C     -3.56716200    -2.43942200    -0.00000000
C     -1.08949100    -2.36884300    -0.00000000
N     -1.04181300    -3.74003600    -0.00000000
C      0.07937700    -4.49201000    -0.00000000
C      1.30703800    -3.86426100     0.00000000
C      1.33744800    -2.45877000     0.00000000
C      0.17036300    -1.68468100     0.00000000
C      0.16033700    -0.22632300     0.00000000
C     -1.10540900     0.45347700    -0.00000000
C     -1.09139600     1.89074300    -0.00000000
C     -2.33560000     2.59112300    -0.00000000
C     -3.51864000     1.90923800    -0.00000000
C      0.13492400     2.58808300     0.00000000
C      1.34690500     1.90952600     0.00000000
C      1.35379500     0.51156000     0.00000000
H     -8.41323800    -2.07488500     0.00000100
H     -6.42004700    -3.52123000    -0.00000000
H     -6.16028900     1.56904400     0.00000000
H     -8.24226700     0.36533300     0.00000100
H     -3.52411900    -3.54111900    -0.00000100
H     -1.95151200    -4.20244300    -0.00000000
H     -0.05860700    -5.57337500    -0.00000000
H      2.22438900    -4.45219300     0.00000000
H      2.30856400    -1.96329100     0.00000000
H     -2.32175300     3.68414600    -0.00000000
H     -4.45061900     2.47495400    -0.00000000
H      0.11410800     3.68105200    -0.00000000
H      2.29092500     2.45864700     0.00000000
H      2.31578400    -0.00348000     0.00000000
