042
BNPAH_000265_PAH43   C24_H16_N01_B01 -1003.16528258     0.00200000    17.55725000  5247.98342053     8.36319392   227.57409832 21957.56263150    30.51153151     0.04862322     1.32310522   127.66024784    -3.86770000    -0.14213535   -89.19128155  -373.17632199    -3.42930000    -0.12602445   -79.08153730  -330.87715205     0.43840000     0.01611090    10.10974425    42.29916994
C      2.07346500    -1.20612300     0.00003200
N      0.91716300    -1.91836100     0.00020600
C     -0.34292700    -1.34734400     0.00018000
C     -1.49404100    -2.13176200     0.00039400
C     -2.74718200    -1.52902600     0.00034400
C     -2.97864900    -0.12904900     0.00007000
C     -1.77468400     0.68820700    -0.00005600
C     -1.87546600     2.09241300    -0.00014400
C     -3.11073500     2.69290800    -0.00008400
C     -4.30923200     1.94807200    -0.00000600
C     -5.51847700     2.70212300     0.00007300
C     -6.72836800     2.08355000     0.00013100
C     -6.83746600     0.65723200     0.00004000
C     -8.16574000     0.10370000     0.00003900
B     -9.47484900     0.94375600     0.00022800
C    -10.78473800     0.16951300     0.00019000
C    -10.77311200    -1.22248800    -0.00001600
C     -9.56990000    -1.95309100    -0.00019300
C     -8.30583700    -1.32560400    -0.00016700
C     -7.11855000    -2.11362200    -0.00038600
C     -5.86308000    -1.56487800    -0.00035700
C     -5.62337200    -0.14535000    -0.00009000
C     -4.31638300     0.50436300    -0.00001100
C     -0.44825300     0.08157100    -0.00004100
C      0.75752600     0.80995200    -0.00021400
C      2.01240600     0.17052800    -0.00018100
H      3.00101000    -1.77828600     0.00007300
H      0.96521200    -2.93389300     0.00036800
H     -1.41890700    -3.22187400     0.00060800
H     -5.06032100    -2.28583000    -0.00060200
H     -0.98297400     2.71723600    -0.00021500
H     -3.18637900     3.78288800    -0.00010500
H     -5.44550100     3.79250100     0.00009800
H     -7.65204500     2.65915800     0.00020700
H     -9.48917900     2.15523900     0.00040500
H    -11.76466700     0.66188000     0.00031600
H    -11.71154000    -1.79157800    -0.00004900
H     -9.60297500    -3.04726500    -0.00036000
H     -7.21368000    -3.20428600    -0.00059800
H     -3.57660700    -2.21645200     0.00057600
H      0.73863100     1.89876100    -0.00038400
H      2.93505300     0.75066400    -0.00032000
