038
BNPAH_000452_PAH46   C22_H14_N01_B01  -925.88391925     0.00100000     6.49408000  4842.06405957     7.71632025   209.97176897 20259.19602524    30.64597506     0.04883747     1.32893525   128.22275965    -4.84470000    -0.17803944  -111.72143695  -467.44249222    -2.19800000    -0.08077501   -50.68708453  -212.07476168     2.64670000     0.09726443    61.03435242   255.36773054
C     -2.60729000    -0.63612800    -0.04894800
C     -2.65100200     0.77685200    -0.06082200
C     -1.48317700     1.51946900    -0.05580400
C     -0.20424300     0.89606100    -0.03863800
C     -0.17407000    -0.53672300    -0.02671900
C      1.09456200    -1.18503600    -0.00941700
C      2.26250500    -0.46764100    -0.00415400
C      2.27129700     0.96571700    -0.01571000
C      3.55641300     1.68267000    -0.00933100
C      4.78492900     0.99395200     0.00805900
C      6.02405400     1.63216100     0.01463500
C      6.10455200     3.03117700     0.00389100
C      7.34776900     3.75523400     0.00978400
C      7.34345300     5.11705300    -0.00143500
N      6.16165500     5.81229900    -0.01838300
C      4.92272700     5.20351000    -0.02519300
C      3.74340900     5.96455600    -0.04266000
C      2.51765400     5.30462400    -0.04891500
C      2.40367800     3.90055200    -0.03848400
B      1.04787100     3.20079500    -0.04561000
C      1.03073900     1.66052600    -0.03315500
C      3.60576800     3.11964900    -0.02064500
C      4.87781000     3.77462300    -0.01390000
C     -1.38408000    -1.27901400    -0.03215900
H     -3.53527300    -1.21326600    -0.05304600
H     -3.61694100     1.28836000    -0.07410000
H     -1.53387400     2.60792000    -0.06511600
H      1.12650600    -2.27835600    -0.00024100
H      3.20027800    -1.02277400     0.00923600
H      4.79075100    -0.09583600     0.01708600
H      6.94153900     1.03934400     0.02826500
H      1.59904900     5.89801100    -0.06251600
H     -1.32975000    -2.37133700    -0.02278000
H      0.04666100     3.87713400    -0.06066300
H      3.79946600     7.05645400    -0.05107900
H      8.29613800     3.21704900     0.02322100
H      8.25070200     5.72184800     0.00223900
H      6.18804500     6.82661000    -0.02645200
