042
BNPAH_000540_PAH54   C24_H16_N01_B01 -1003.19221194     0.01000000     9.83684000  5264.88185640     8.39012330   228.30688385 22028.26568718    30.60977823     0.04877979     1.32736560   128.07131211    -4.40750000    -0.16197264  -101.63936536  -425.25910468    -2.86360000    -0.10523536   -66.03618529  -276.29539924     1.54390000     0.05673728    35.60318008   148.96370544
C      7.88522300     1.75291200     0.00093200
C      7.84028000     0.33055000     0.00052100
C      6.63176300    -0.33126600     0.00013900
C      5.40417200     0.39655700     0.00014900
C      4.14812600    -0.24469200    -0.00024000
C      2.93637700     0.45215800    -0.00021000
C      2.99561000     1.88625700     0.00019700
C      4.23111200     2.53480300     0.00056400
C      5.45143200     1.83193500     0.00057200
C      6.71909200     2.48648800     0.00095500
C      1.73841100     2.62822000    -0.00010900
C      1.70107500     4.02397600    -0.00028500
C      0.49539500     4.75094400    -0.00113300
C     -0.67585100     4.03392000    -0.00193800
N     -0.63188900     2.68295700    -0.00161100
C      0.49810000     1.89494200    -0.00043900
C      0.38360600     0.46765200    -0.00004700
C      1.63724800    -0.25051500    -0.00051000
C      1.63278900    -1.64978000    -0.00134200
C      0.43734400    -2.36029000    -0.00160800
C     -0.81794500    -1.74796700    -0.00067100
B     -2.06077400    -2.66939900    -0.00066500
C     -3.40217900    -1.98275800     0.00101100
C     -3.38764400    -0.59760700     0.00257200
C     -2.21932500     0.21100500     0.00241500
C     -0.89407500    -0.29045700     0.00052900
H      8.85252600     2.26076700     0.00122800
H      8.77424400    -0.23634000     0.00050900
H      6.59691400    -1.42370800    -0.00017800
H      4.15434900    -1.33344500    -0.00052600
H      4.28227300     3.62463600     0.00083400
H      6.75004600     3.57933300     0.00126900
H      2.63705600     4.58162800     0.00010700
H      0.48345200     5.84023000    -0.00133800
H     -1.67041300     4.48131700    -0.00288200
H     -2.51512200     1.26160800     0.00451100
H      2.56785000    -2.20576500    -0.00190100
H      0.47093900    -3.45352300    -0.00237600
H     -1.89572300    -3.87125100    -0.00183300
H     -4.37847100    -2.48008500     0.00132700
H     -4.33413200    -0.03946100     0.00415300
H     -1.51097200     2.17355300    -0.00265000
