038
BNPAH_000522_PAH46   C22_H14_N01_B01  -925.90761487     0.00100000     1.82032000  4856.93328391     7.74001586   210.61655956 20321.40885988    30.74008408     0.04898744     1.33301620   128.61651179    -5.17110000    -0.19003442  -119.24839983  -498.93530487    -2.38300000    -0.08757364   -54.95328591  -229.92454826     2.78810000     0.10246079    64.29511391   269.01075661
C     -2.61874300    -0.51574800    -0.05022300
C     -2.62353000     0.89358100    -0.06186200
C     -1.42992300     1.60010000    -0.05619600
C     -0.17592600     0.93991400    -0.03870700
C     -0.18003300    -0.48882900    -0.02702400
C      1.06837500    -1.19255700    -0.00930900
C      2.26035800    -0.52551900    -0.00345000
C      2.32959400     0.90757400    -0.01455500
C      3.58678100     1.60847800    -0.00838800
C      4.87737700     0.93777300     0.00928400
C      6.09447200     1.58149200     0.01548700
C      6.19715700     3.01855400     0.00468100
C      7.36086100     3.78859000     0.00942900
C      7.27444400     5.20543700    -0.00293700
C      6.06850100     5.88583800    -0.01989900
N      4.87159800     5.21871800    -0.02579300
C      3.63839300     5.87936900    -0.04278600
C      2.45170600     5.20806400    -0.04848600
C      2.35419600     3.76013900    -0.03761000
C      1.14025400     3.07004900    -0.04348100
C      1.09991500     1.65682700    -0.03236600
C      3.57064700     3.02250400    -0.02010700
B      4.87991400     3.76244800    -0.01382800
C     -1.41091800    -1.19162900    -0.03306700
H     -3.56135200    -1.06816600    -0.05474400
H     -3.57212800     1.43573800    -0.07544700
H     -1.47176500     2.68978000    -0.06557900
H      1.04991600    -2.28554900    -0.00050000
H      3.18639700    -1.10041300     0.01008800
H      4.89110200    -0.15346400     0.01835900
H      7.00459600     0.97064600     0.02909100
H      1.53400400     5.80089500    -0.06195900
H     -1.38846500    -2.28469500    -0.02387700
H      0.21008800     3.64015800    -0.05692000
H      3.68200400     6.97117600    -0.05126600
H      8.35679000     3.32967700     0.02261900
H      8.18821300     5.80308400     0.00086100
H      6.02541200     6.97806600    -0.02919400
