042
BNPAH_000098_PAH58   C24_H16_N01_B01 -1003.22737987     0.00000000     4.42787000  5286.95007006     8.42529123   229.26385216 22120.59909313    30.73808180     0.04898425     1.33292937   128.60813425    -5.05100000    -0.18562083  -116.47882801  -487.34741639    -2.32230000    -0.08534295   -53.55351065  -224.06788855     2.72870000     0.10027788    62.92531736   263.27952784
C      3.01995100     2.41678300    -0.00000100
C      2.77188100     1.05920000    -0.00000200
C      1.43976500     0.56171200    -0.00000100
B      0.22944200     1.51678300     0.00000000
C      0.61868600     3.00586700     0.00000200
C      1.95545300     3.36307300     0.00000100
C     -1.17712200     0.82764100     0.00000000
C     -2.48855400     1.46328100     0.00000100
C     -2.60359800     2.88385100     0.00000100
C     -3.82029800     3.52025100     0.00000100
C     -5.05092500     2.80738800     0.00000100
C     -4.99026800     1.38620300     0.00000100
C     -6.21939800     0.64544200     0.00000100
C     -7.43380500     1.27389700     0.00000000
C     -7.53509600     2.70156600    -0.00000000
C     -8.79717200     3.34792700    -0.00000100
C     -8.88876300     4.72838700    -0.00000100
C     -7.71092300     5.50576200    -0.00000100
C     -6.46683200     4.89608800    -0.00000000
C     -6.33742600     3.48313900     0.00000000
C     -3.70785200     0.72566500     0.00000100
C     -3.60044300    -0.69856100     0.00000100
C     -2.38592600    -1.29349700     0.00000100
N     -1.19455300    -0.57433300     0.00000000
C     -0.04689500    -1.35709400    -0.00000100
C      1.21511400    -0.83474200    -0.00000200
H      4.05112600     2.78154600    -0.00000100
H      3.61257700     0.35464900    -0.00000300
H     -1.70253300     3.48294500     0.00000100
H      2.23230300     4.42420600     0.00000200
H     -0.06005400     3.86311900     0.00000300
H     -3.82880400     4.61052800     0.00000100
H     -6.19578700    -0.44434000     0.00000100
H     -8.35489200     0.68541300     0.00000000
H     -9.70095400     2.73285900    -0.00000100
H     -9.86619600     5.21637900    -0.00000200
H     -7.77871100     6.59619800    -0.00000100
H     -5.57526400     5.52414000    -0.00000000
H     -4.47947800    -1.34027100     0.00000200
H     -2.26506400    -2.37582400     0.00000100
H     -0.23872600    -2.42896800    -0.00000100
H      2.05027700    -1.54426900    -0.00000200
