042
BNPAH_000143_PAH35   C24_H16_N01_B01 -1003.27711216     4.89400000     2.06083000  5318.15755683     8.47502353   230.61713685 22251.17121778    30.91952068     0.04927339     1.34079731   129.36727453    -5.06720000    -0.18621617  -116.85240889  -488.91047878    -2.14630000    -0.07887507   -49.49485420  -207.08646997     2.92090000     0.10734110    67.35755469   281.82400882
C      0.08385400     0.77590900     0.05810100
C      0.10023400    -0.67622400     0.01831400
C     -0.16879500    -3.07472400    -1.12513400
C      0.01590400     2.98573700    -1.11167000
C     -0.12883500     0.70610300     2.52595400
C      0.21403000    -0.68129500     2.50847100
C     -0.21280800     1.44144600     1.27229000
C      0.24425700    -1.39263100     1.23132400
C     -0.53042600    -3.84940500    -2.23234700
C      0.26199800     3.77512000    -2.26594800
B     -0.25496600    -1.54940900    -1.21747100
C      0.37135200     1.59654100    -1.11077200
C     -0.51299700     3.56106800     0.08224100
C      0.21389400    -3.63695800     0.13389000
C     -0.55704200     2.83029800     1.24016400
C      0.36948500    -2.83604600     1.23393000
C     -1.02180600    -3.25529300    -3.41162400
C      0.91374100     3.24774300    -3.36572700
N     -0.82238100    -1.06926700    -2.46446400
C      1.10720900     1.11144400    -2.22762500
C     -1.17601900    -1.87985500    -3.48882200
C      1.37063000     1.91158100    -3.32823900
C     -0.29375400     1.35122100     3.77781700
C      0.43002400    -1.33256600     3.75033400
C     -0.09653900     0.68183300     4.97409900
C      0.28231300    -0.67250600     4.95932600
H     -0.04538300     4.82438300    -2.25542800
H     -0.46643500    -4.94355100    -2.18511800
H     -0.81575600     4.61121000     0.07721900
H      0.32835200    -4.72163400     0.24175100
H     -0.88352600     3.32126500     2.15720200
H      0.58307700    -3.32659400     2.18325700
H     -1.31464200    -3.86635000    -4.26678500
H      1.11126900     3.87056500    -4.24154400
H     -0.95996600    -0.07230100    -2.62105300
H      1.50165900     0.09504000    -2.19764300
H     -1.59217500    -1.40206500    -4.37902300
H      1.95421300     1.51109200    -4.16090000
H     -0.22211800     1.20974000     5.92241400
H      0.45784200    -1.20617400     5.89641300
H      0.71943800    -2.38274300     3.76797100
H     -0.55840500     2.40825200     3.81004400
