042
BNPAH_000187_PAH57   C24_H16_N01_B01 -1003.20985032     0.00000000    11.19034000  5275.95010749     8.40776168   228.78684864 22074.57524974    30.67412853     0.04888234     1.33015610   128.34055377    -4.39530000    -0.16152430  -101.35802668  -424.08198362    -3.09850000    -0.11386778   -71.45310802  -298.95980394     1.29680000     0.04765652    29.90491866   125.12217968
C      2.70831600    -0.02440700    -0.00000000
C      2.67545900    -1.41263100     0.00000000
C      1.45172900    -2.11893800     0.00000000
C      1.44142300    -3.56271100     0.00000000
C      0.27465400    -4.25940500     0.00000000
C     -1.01837700    -3.60920300     0.00000000
C     -2.18930100    -4.36657300     0.00000000
B     -3.54324100    -3.68773700    -0.00000000
C     -4.91908900    -4.37258000    -0.00000000
C     -6.05498500    -3.60627700    -0.00000000
C     -6.03291200    -2.16367800    -0.00000000
C     -7.23607600    -1.41347500    -0.00000000
N     -8.46610100    -2.03864700    -0.00000000
C     -9.66262300    -1.41093600    -0.00000000
C     -9.71779400    -0.02976400     0.00000000
C     -8.50866400     0.68454300     0.00000000
C     -7.26980200     0.03016100     0.00000000
C     -6.01925400     0.71491600     0.00000100
C     -4.84871900     0.00344500     0.00000000
C     -4.78333000    -1.43180600    -0.00000000
C     -3.53741400    -2.14146600    -0.00000000
C     -2.28419700    -1.47888700    -0.00000000
C     -1.05708200    -2.14655400    -0.00000000
C      0.21393600    -1.40472900    -0.00000000
C      0.28348700     0.00871700    -0.00000100
C      1.49711300     0.68766700    -0.00000100
H      3.66295500     0.50730400    -0.00000000
H      3.60745100    -1.98510200     0.00000000
H      2.40245400    -4.08493700     0.00000100
H      0.28532800    -5.35303800     0.00000100
H     -2.05715700    -5.45661600     0.00000000
H     -5.05225400    -5.46152900    -0.00000000
H     -7.03078300    -4.11490800    -0.00000000
H     -8.45246200    -3.05650800    -0.00000100
H    -10.54401500    -2.05271000    -0.00000100
H    -10.68288300     0.47609100     0.00000000
H     -8.52342500     1.77716700     0.00000100
H     -6.01561700     1.80694400     0.00000100
H     -3.91015900     0.55837700     0.00000100
H     -2.25120500    -0.38719400    -0.00000000
H     -0.63531400     0.59688000    -0.00000100
H      1.50374700     1.78073200    -0.00000100
