030
BNPAH_000017_PAH08   C16_H12_N01_B01  -696.16525709     0.00100000     2.26083000  3704.71651491     5.90384157   160.65171187 15500.53389838    30.87263762     0.04919868     1.33876427   129.17111580    -5.23960000    -0.19255175  -120.82804736  -505.54455017    -2.15050000    -0.07902942   -49.59170850  -207.49170836     3.08910000     0.11352233    71.23633886   298.05284181
B      2.31351100    -0.13405300    -0.00005600
C      2.10988800    -1.61563300     0.00010800
C      0.82367100    -2.17119400     0.00009600
C      0.69621700    -3.60328600     0.00016900
C     -0.52454100    -4.18879300     0.00009200
C     -1.74001300    -3.41852600    -0.00000100
C     -2.94871900    -4.17702000    -0.00009500
C     -4.16695200    -3.56799400    -0.00016800
C     -4.24537900    -2.14714200    -0.00008800
C     -3.04745000    -1.33515700     0.00003900
C     -3.29785200     0.07132100     0.00024300
C     -4.56779200     0.62390200     0.00024200
C     -5.71512800    -0.19108500     0.00004900
C     -5.53823000    -1.55774300    -0.00010100
C     -1.73212100    -1.99466600     0.00000200
C     -0.39262000    -1.35122300    -0.00003000
C     -0.16834900     0.02762700    -0.00023500
N      1.06333100     0.58852500    -0.00024200
H      3.33971800     0.49431400    -0.00008100
H      2.93595100    -2.33431500     0.00021900
H      1.61063100    -4.20090600     0.00025100
H     -0.61917700    -5.27777000     0.00010900
H     -2.86882800    -5.26679400    -0.00011500
H     -5.09243500    -4.14865000    -0.00025100
H     -0.97095500     0.74901100    -0.00044400
H     -4.66921000     1.71197200     0.00040600
H     -6.71497200     0.24847100     0.00004700
H     -6.40125300    -2.22874900    -0.00021500
H     -2.49214000     0.79023600     0.00045400
H      1.05963800     1.60533000    -0.00040400
