036
BNPAH_000388_PAH20   C20_H14_N01_B01  -849.62658487     0.02900000     8.11516000  4452.07478169     7.09483277   193.06023341 18627.48088659    30.49366289     0.04859475     1.32233037   127.58548553    -4.96050000    -0.18229501  -114.39184841  -478.61549376    -2.54280000    -0.09344618   -58.63836149  -245.34290445     2.41770000     0.08884884    55.75348693   233.27258931
C      2.11518900     0.51441100     0.00275200
C      2.23752000    -0.88283700     0.00697700
C      1.12765000    -1.71546000     0.00628900
C     -0.23329100    -1.24948400     0.00096500
C     -0.31200900     0.19811500    -0.00184800
C     -1.56548600     0.86187900    -0.00453100
C     -2.72127800     0.15219700    -0.00389500
C     -2.74346500    -1.27460800    -0.00169400
C     -1.51990100    -1.99210400    -0.00084200
N     -1.64245900    -3.43277600    -0.00170500
C     -0.52728900    -4.24820600    -0.00589500
C     -0.54059400    -5.61159200    -0.00618500
C     -1.78678700    -6.27878600    -0.00226900
C     -2.91350100    -5.50695400     0.00067300
C     -2.90607500    -4.07261000     0.00042700
C     -4.11765000    -3.34477900     0.00156000
C     -5.38614300    -4.02364900     0.00357700
C     -6.59413800    -3.36897600     0.00384400
B     -6.62643400    -1.83997200     0.00185000
C     -5.26522400    -1.17306400    -0.00024700
C     -4.07435700    -1.90167500    -0.00030500
C      0.83888000     1.02920800    -0.00135000
H      2.99410600     1.16184300     0.00330900
H      3.22637500    -1.34749500     0.01113000
H      0.41006300    -3.73897000    -0.00988000
H     -1.58107600     1.95394000    -0.00636700
H     -3.66852100     0.68199700    -0.00518400
H      1.42362100    -2.75400100     0.01111400
H      0.41071300    -6.14399700    -0.00958800
H     -1.85239500    -7.36802900    -0.00223700
H     -3.88439200    -5.99101100     0.00289100
H     -5.39087900    -5.11535100     0.00488100
H     -7.48921600    -4.00287100     0.00545500
H     -7.65627900    -1.20053800     0.00195100
H     -5.20546100    -0.08314000    -0.00162800
H      0.67402600     2.10933500    -0.00399600
