042
BNPAH_000475_PAH70   C24_H16_N01_B01 -1003.18895922     0.00100000    13.32888000  5262.84074095     8.38687057   228.21837270 22019.72566013    30.59791128     0.04876088     1.32685100   128.02166080    -4.14280000    -0.15224509   -95.53523830  -399.71943707    -3.22100000    -0.11836957   -74.27802515  -310.77925721     0.92180000     0.03387553    21.25721316    88.94017985
C      2.67294300    -0.48619400    -0.00001200
C      2.60191100    -1.85338900    -0.00000500
C      1.34423700    -2.52791500    -0.00000100
C      1.24240800    -3.93469100     0.00000600
C     -0.00252600    -4.54744000     0.00000900
C     -1.21255700    -3.81123000     0.00000600
C     -2.47065200    -4.43965100     0.00000800
C     -3.67034600    -3.72082900     0.00000400
C     -4.92831500    -4.39951200     0.00000200
C     -6.08391300    -3.67338800    -0.00000400
C     -6.09410400    -2.23546000    -0.00000500
C     -7.36791300    -1.60968000    -0.00001200
C     -7.53304400    -0.23250200    -0.00001300
C     -6.43359800     0.65296500    -0.00000500
C     -6.67889800     2.05822000    -0.00000300
C     -5.64498000     2.97044800     0.00000800
C     -4.28667800     2.53601800     0.00002100
C     -3.91245900     1.20329800     0.00002000
B     -4.98376400     0.09199500     0.00000500
C     -4.86375300    -1.48266800     0.00000100
C     -3.65214200    -2.26276800     0.00000200
C     -2.37040200    -1.65720600    -0.00000200
C     -1.17442600    -2.36426700     0.00000000
C      0.13666100    -1.72111900    -0.00000400
C      0.28681000    -0.33999600    -0.00001200
N      1.51270800     0.24104600    -0.00001500
H      3.60374200     0.07958100    -0.00001600
H      3.52623800    -2.43312700    -0.00000200
H      2.15531000    -4.53379300     0.00000900
H     -0.06269000    -5.63922000     0.00001400
H     -2.51175100    -5.53284200     0.00001100
H     -4.94338800    -5.49242600     0.00000400
H     -7.04925800    -4.18850900    -0.00000700
H     -8.24999200    -2.25726000    -0.00001700
H     -8.55439800     0.17131000    -0.00001900
H     -7.71561100     2.41977300    -0.00001100
H     -5.85887100     4.04344600     0.00001000
H     -3.51590000     3.31852300     0.00003200
H     -2.35291800    -0.57407400    -0.00000700
H     -2.82335500     1.06239900     0.00003400
H     -0.55943900     0.34625100    -0.00001500
H      1.56561600     1.25591600    -0.00002100
