038
BNPAH_000426_PAH47   C22_H14_N01_B01  -925.82494089     0.00900000     7.07527000  4805.05457098     7.65734187   208.36688566 20104.34832498    30.41173779     0.04846419     1.31877776   127.24271091    -4.43080000    -0.16282890  -102.17667613  -427.50721294    -2.75900000    -0.10139138   -63.62405197  -266.20303342     1.67180000     0.06143752    38.55262417   161.30417951
C      2.01616400     1.31297300    -0.00092700
C      0.89556300     2.15464600    -0.00213900
C     -0.39443900     1.64256700    -0.00186500
C     -0.70138300     0.24248100    -0.00026200
C      0.48305500    -0.59841100     0.00050800
C      0.40713600    -2.02462800     0.00125400
C     -0.80105900    -2.63770500     0.00105900
C     -2.01027800    -1.87722700     0.00052700
C     -3.21312500    -2.61445000     0.00013900
C     -4.46395000    -2.03853800    -0.00031500
C     -4.51108400    -0.59810600     0.00007100
N     -3.30084100     0.15211400     0.00063100
C     -3.44909100     1.53796100     0.00185900
C     -4.64012300     2.18300700     0.00189300
C     -5.87752800     1.48238000     0.00081700
C     -5.77605100     0.04667200     0.00003100
C     -7.00982000    -0.74014000    -0.00070600
C     -7.02306800    -2.15358200    -0.00126100
B     -5.74870700    -2.90966800    -0.00101600
C     -8.23328400    -0.00308000    -0.00077900
C     -8.28868600     1.38075600    -0.00008800
C     -7.10773700     2.14096500     0.00076700
C     -2.01531000    -0.44923300     0.00032800
C      1.78968200    -0.04687600     0.00029700
H      3.02946300     1.71944300    -0.00113600
H      1.02113800     3.23971900    -0.00338600
H     -2.54463000     2.10594900     0.00306700
H      1.33694500    -2.59678600     0.00171600
H     -0.89001100    -3.72572600     0.00134000
H     -3.13857100    -3.70512900     0.00011200
H     -1.14191900     2.42166000    -0.00326100
H     -4.62696300     3.27492400     0.00286800
H     -8.01925600    -2.61078700    -0.00175800
H     -5.62795200    -4.11507000    -0.00131300
H     -9.16146500    -0.58005500    -0.00136400
H     -9.25889500     1.88455300    -0.00014500
H     -7.13671900     3.23273200     0.00141300
H      2.62841100    -0.74703700     0.00102500
