032
BNPAH_000022_PAH11   C18_H12_N01_B01  -772.30614003     0.00000000     3.39861000  4021.63139498     6.40887757   174.39444166 16826.50575660    30.46690451     0.04855210     1.32117001   127.47352847    -4.63980000    -0.17050951  -106.99633067  -447.67264751    -2.36820000    -0.08702975   -54.61198980  -228.49656533     2.27160000     0.08347976    52.38434086   219.17608218
C      0.26875200    -1.70164000     0.00000000
B      1.61703100    -1.02045800     0.00000000
C      1.62914800     0.50280500    -0.00000000
N      0.42349900     1.21259000    -0.00000000
C     -0.80606000     0.51241200     0.00000000
C     -2.02992000     1.21738000    -0.00000000
C     -2.07664100     2.59050700    -0.00000000
C     -0.85256300     3.27441800    -0.00000000
C      0.37355700     2.62741000    -0.00000000
C      1.62666900     3.39593600    -0.00000000
C      1.63692700     4.79472100     0.00000000
C      2.84585900     5.51487900     0.00000000
C      4.05864300     4.85497200     0.00000000
C      4.10395900     3.43504600     0.00000000
C      5.33274800     2.72484200    -0.00000000
C      5.32904400     1.34284300    -0.00000000
C      4.12238700     0.62150300    -0.00000000
C      2.87906400     1.26742000    -0.00000000
C      2.86951600     2.69783200    -0.00000000
C     -0.84995500    -0.90626200     0.00000000
H      0.12392000    -2.78690600     0.00000100
H      2.63975200    -1.65372800     0.00000000
H     -2.93945900     0.61496600     0.00000000
H     -3.02189600     3.13450500    -0.00000000
H     -0.85399600     4.36154900    -0.00000100
H      0.70699900     5.36220900     0.00000000
H      2.81334600     6.60691300     0.00000100
H      4.99799800     5.41320300     0.00000000
H      6.27013100     3.28608600     0.00000000
H      6.27363900     0.79327200    -0.00000000
H      4.15298100    -0.46578800    -0.00000100
H     -1.86179800    -1.32499600     0.00000000
