042
BNPAH_000551_PAH63   C24_H16_N01_B01 -1003.19387959     0.00300000     9.35319000  5265.92832111     8.39179094   228.35226285 22032.64409552    30.61586233     0.04878948     1.32762944   128.09676799    -4.61320000    -0.16953197  -106.38292009  -445.10613765    -2.42030000    -0.08894439   -55.81344435  -233.52345118     2.19290000     0.08058759    50.56947574   211.58268648
N      2.67447900    -0.09407400     0.00011000
C      2.50139300    -1.42430000     0.00021600
C      1.22559500    -1.99686300     0.00017000
C      1.15419900    -3.41415900     0.00029700
C     -0.05773800    -4.06485200     0.00026100
C     -1.31120900    -3.39110400     0.00010500
C     -2.55129700    -4.15671900     0.00000000
C     -2.47815000    -5.57768700    -0.00002300
C     -3.58172600    -6.40774700    -0.00025800
C     -4.84377600    -5.80863900    -0.00051400
C     -4.94889500    -4.42559800    -0.00046200
C     -3.85297500    -3.51928500    -0.00014100
C     -4.01081700    -2.03114800    -0.00005600
C     -5.31376800    -1.31002300     0.00010100
C     -6.63833900    -1.85872100     0.00060500
C     -7.79975400    -1.10252000     0.00067300
C     -7.76162800     0.30265300     0.00027100
C     -6.52146600     0.89894200    -0.00012500
C     -5.32090000     0.13742000    -0.00017400
C     -4.10260600     0.85656500    -0.00044400
C     -2.92117800     0.18004900    -0.00038500
C     -2.81308700    -1.24294200    -0.00015900
B     -1.37176000    -1.87256600    -0.00003800
C      0.02469700    -1.15184500    -0.00000200
C      0.33049300     0.24246100    -0.00009900
C      1.60479500     0.76266200    -0.00004800
H      3.61765200     0.28482600     0.00014900
H      3.40682900    -2.03384700     0.00034200
H      2.08513400    -3.98749700     0.00042000
H     -0.00616200    -5.15548000     0.00035700
H     -1.49897700    -6.05206400     0.00011700
H     -3.46330900    -7.49401600    -0.00028700
H     -5.75512800    -6.41182400    -0.00076900
H     -6.82402800    -2.91900400     0.00104100
H     -5.95885400    -4.06304500    -0.00075900
H     -8.75967700    -1.62537400     0.00106700
H     -8.67958700     0.89482400     0.00032500
H     -6.42567300     1.98826400    -0.00038100
H     -4.12987300     1.94964600    -0.00063200
H     -0.45424400     0.99214500    -0.00021900
H     -2.01772100     0.77485700    -0.00052900
H      1.83172600     1.82760900    -0.00012300
