018
BNPAH_001640_PAH01   C02_H08_N04_B04  -399.34561464     0.00000000     4.32207000  1872.52677477     2.98406136    81.20044562  7834.65202564    27.53715845     0.04388326     1.19412420   115.21547095    -5.48930000    -0.20172806  -126.58626620  -529.63693779    -1.76750000    -0.06495443   -40.75951861  -170.53782587     3.72180000     0.13677363    85.82674759   359.09911192
B     -0.00000000     1.27382400     1.42220100
N      0.00000000     2.47435000     0.69993600
N      0.00000000     2.47435000    -0.69993600
B     -0.00000000     1.27382400    -1.42220100
B     -0.00000000    -1.23014800    -1.44462600
C      0.00000000    -2.56755000    -0.68377600
C      0.00000000    -2.56755000     0.68377600
B     -0.00000000    -1.23014800     1.44462600
N     -0.00000000     0.00195600     0.71027400
N     -0.00000000     0.00195600    -0.71027400
H     -0.00000000     1.30451200     2.61763900
H      0.00000000     3.39244700     1.12646400
H      0.00000000     3.39244700    -1.12646400
H      0.00000000     1.30451200    -2.61763900
H     -0.00000000    -1.12796100    -2.64347500
H      0.00000000    -3.52143100    -1.22819200
H      0.00000000    -3.52143100     1.22819200
H      0.00000000    -1.12796100     2.64347500
