042
BNPAH_000254_PAH73   C24_H16_N01_B01 -1003.26328610     0.00000000     2.63878000  5309.48157196     8.46119747   230.24091054 22214.87089708    30.86907891     0.04919301     1.33860995   129.15622616    -5.18440000    -0.19052319  -119.55510511  -500.21855980    -2.28590000    -0.08400528   -52.71410670  -220.55582244     2.89850000     0.10651791    66.84099841   279.66273736
C      8.03489700    -0.37577400    -0.00000000
C      6.75722500    -0.91704500    -0.00000000
C      5.63304000    -0.05945300     0.00000000
N      4.36870800    -0.61303800     0.00000000
C      3.17606200     0.08092100     0.00000000
C      1.96275000    -0.62143700     0.00000000
C      0.73671700     0.05889200     0.00000000
C      0.70971000     1.49596900     0.00000000
C      1.94041900     2.16641300     0.00000000
C      3.18724400     1.51150800     0.00000000
B      4.53845000     2.24217100     0.00000000
C      5.79290400     1.35772300     0.00000000
C      7.11979100     1.85816700    -0.00000000
C      8.22711200     1.02070400    -0.00000000
C     -0.58314400     2.18992700     0.00000000
C     -0.70071700     3.57998900     0.00000000
C     -1.95250000     4.23461500     0.00000000
C     -2.06393500     5.65737200     0.00000000
C     -3.29864000     6.26939900    -0.00000000
C     -4.48900900     5.49037200    -0.00000000
C     -4.41986800     4.11421400    -0.00000000
C     -3.15857300     3.44691900    -0.00000000
C     -3.03959400     2.04218700    -0.00000000
C     -1.79662200     1.40589000    -0.00000000
C     -1.70641600    -0.03441500    -0.00000000
C     -0.50647500    -0.67548600     0.00000000
H      8.89924600    -1.04500500    -0.00000000
H      6.61642000    -2.00212300    -0.00000000
H      4.31093400    -1.62664200     0.00000000
H      1.96137000    -1.71593700     0.00000000
H      1.96003400     3.25801000     0.00000000
H      4.60763400     3.44879300     0.00000000
H      7.25796700     2.94286600    -0.00000000
H      9.23867900     1.43244800    -0.00000000
H      0.19443200     4.20475700     0.00000000
H     -1.14894700     6.25578600     0.00000000
H     -3.36874800     7.35984700     0.00000000
H     -5.46042800     5.99066200    -0.00000000
H     -5.33275000     3.51259600    -0.00000000
H     -3.94746200     1.43197900    -0.00000000
H     -2.63777200    -0.60702900    -0.00000000
H     -0.46247300    -1.76773500     0.00000000
