042
BNPAH_000012_PAH39   C24_H16_N01_B01 -1003.17906663     0.00000000    17.03824000  5256.63304672     8.37697798   227.94918161 21993.75266748    30.56182004     0.04870336     1.32528594   127.87065505    -4.19540000    -0.15417811   -96.74822313  -404.79456558    -3.28890000    -0.12086485   -75.84383636  -317.33061132     0.90650000     0.03331326    20.90438677    87.46395426
B      2.83552600     0.36895900     0.00000200
C      2.74320800    -1.16707100     0.00000200
C      1.51964500    -1.80117400     0.00000100
C      0.27274900    -1.09298700    -0.00000000
C      0.29654800     0.36437900     0.00000000
C     -0.97331300     1.03888700    -0.00000000
C     -2.17705800     0.38820500    -0.00000100
C     -2.23814100    -1.04204500    -0.00000100
C     -3.48084200    -1.74910800    -0.00000200
C     -4.73867700    -1.08161700    -0.00000200
C     -5.92398500    -1.77040100    -0.00000100
C     -5.96791700    -3.18280900    -0.00000100
N     -4.74668300    -3.86037000    -0.00000100
C     -4.76167300    -5.26117100    -0.00000100
C     -5.90583800    -5.98489000    -0.00000100
C     -7.18865100    -5.35229600     0.00000000
C     -8.39383900    -6.08662700     0.00000100
C     -9.61599900    -5.43166400     0.00000200
C     -9.64772900    -4.02194000     0.00000200
C     -8.47504500    -3.28276900     0.00000100
C     -7.20831600    -3.92554500    -0.00000000
C     -3.51406100    -3.18574000    -0.00000200
C     -2.27989300    -3.88168200    -0.00000200
C     -1.08939000    -3.18770200    -0.00000100
C     -0.99131200    -1.76607500    -0.00000100
C      1.49844300     1.08151600     0.00000100
H      3.89809100     0.95427500     0.00000300
H      3.62558600    -1.82031400     0.00000200
H      1.48992100    -2.89605600     0.00000000
H     -0.95803300     2.13281000    -0.00000000
H     -3.09343700     0.98010500    -0.00000200
H     -4.76797300     0.00690500    -0.00000200
H     -6.86270700    -1.22164100    -0.00000100
H     -3.79287900    -5.74336800    -0.00000200
H     -5.83133900    -7.07364700    -0.00000100
H     -8.34674900    -7.17823300     0.00000200
H    -10.54783100    -6.00072100     0.00000300
H    -10.60803200    -3.50159400     0.00000200
H     -8.54271000    -2.19537500     0.00000100
H     -2.22201700    -4.96708000    -0.00000200
H     -0.17275600    -3.77703600    -0.00000100
H      1.39281600     2.17470400     0.00000200
