042
BNPAH_000359_PAH73   C24_H16_N01_B01 -1003.22986904     0.00000000     6.07765000  5288.51204585     8.42778040   229.33158584 22127.13439984    30.74716306     0.04899872     1.33332317   128.64613024    -4.67450000    -0.17178471  -107.79653168  -451.02068856    -3.16550000    -0.11632998   -72.99816473  -305.42432124     1.50900000     0.05545473    34.79836695   145.59636732
C      8.09250800    -0.19431500    -0.00000100
C      6.89508100    -0.87215300    -0.00000100
C      5.65213400    -0.16618600    -0.00000000
C      4.41305600    -0.83254900    -0.00000000
C      3.19782900    -0.13231500     0.00000000
C      1.92096400    -0.76391400     0.00000000
C      0.73420400    -0.04223600     0.00000100
C      0.79436500     1.41080300     0.00000100
N      2.03327000     1.96988900     0.00000100
C      3.23878500     1.30679300     0.00000100
C      4.45389300     1.98889000     0.00000100
C      5.67313600     1.28107000     0.00000000
C      6.93627300     1.94684600    -0.00000000
C      8.11176000     1.22974200    -0.00000100
B     -0.50139700     2.24486900     0.00000100
C     -0.61690000     3.73998000     0.00000100
C     -1.89975300     4.34284800     0.00000000
C     -2.06560600     5.76386600     0.00000000
C     -3.31300700     6.35389500    -0.00000000
C     -4.48028400     5.54814100    -0.00000100
C     -4.36695900     4.17057500    -0.00000100
C     -3.09941300     3.52371200    -0.00000000
C     -3.01826300     2.10149400    -0.00000000
C     -1.80329100     1.42520300     0.00000000
C     -1.74028800    -0.01785000     0.00000000
C     -0.55565800    -0.70132700     0.00000000
H      9.03547800    -0.74567400    -0.00000100
H      6.87556700    -1.96494300    -0.00000100
H      4.39267600    -1.92542400    -0.00000000
H      1.88489800    -1.85726500     0.00000000
H      2.06322500     2.98812300     0.00000100
H      4.46527900     3.08221600     0.00000100
H      6.95423600     3.03964400     0.00000000
H      9.07025300     1.75413300    -0.00000100
H      0.22454500     4.44973700     0.00000100
H     -1.16564200     6.38616300     0.00000100
H     -3.40526200     7.44316500    -0.00000000
H     -5.46677800     6.01853200    -0.00000200
H     -5.26635700     3.54773400    -0.00000200
H     -3.96565500     1.54616300    -0.00000100
H     -2.67418700    -0.59352700    -0.00000000
H     -0.55104300    -1.79456400     0.00000000
