042
BNPAH_000390_PAH55   C24_H16_N01_B01 -1003.24707826     0.00300000     3.50516000  5299.31099773     8.44498963   229.79987271 22172.31721450    30.80994766     0.04909878     1.33604577   128.90882101    -4.87920000    -0.17930729  -112.51702586  -470.77123620    -2.50000000    -0.09187331   -57.65137003  -241.21333221     2.37920000     0.08743399    54.86565583   229.55790399
C      2.66506600    -0.26597800     0.00024200
C      2.46232400    -1.62817600    -0.00015900
C      1.15600600    -2.18637900    -0.00018600
C      1.03790500    -3.59816400    -0.00047400
C     -0.19185000    -4.18514700    -0.00040400
C     -1.40022400    -3.42676400    -0.00014400
C     -2.66167700    -4.19482700    -0.00003500
C     -2.67523700    -5.61244000    -0.00008300
C     -3.85705800    -6.33936300     0.00006100
C     -5.08595300    -5.66545200     0.00025900
C     -5.10104100    -4.27892100     0.00030400
C     -3.90627000    -3.52235600     0.00016000
C     -3.90581900    -2.05870800     0.00013200
C     -5.11196000    -1.39279200     0.00018100
N     -5.26632400    -0.03344800     0.00003200
B     -6.61666800     0.56856200     0.00009300
C     -6.67014300     2.05959800    -0.00013700
C     -5.47060800     2.77939100    -0.00040100
C     -4.22345200     2.14421700    -0.00045000
C     -4.10856100     0.74425300    -0.00022900
C     -2.85167400     0.08612400    -0.00025700
C     -2.66125500    -1.29192400    -0.00001700
C     -1.35602100    -2.00378600    -0.00000100
C     -0.02890800    -1.36144700     0.00012600
C      0.24927500     0.04033300     0.00062900
C      1.53063300     0.56664800     0.00067300
H      3.67201800     0.15669800     0.00027600
H      3.30955800    -2.31883600    -0.00043800
H      1.94522800    -4.20693900    -0.00069300
H     -0.23946400    -5.27053200    -0.00056900
H     -1.74408100    -6.17482800    -0.00022500
H     -3.82252600    -7.43103500     0.00002200
H     -6.02616700    -6.22134000     0.00037300
H     -6.06837500    -3.77760200     0.00044800
H     -6.05914700    -1.92534600     0.00031400
H     -7.53464400    -0.21186400     0.00031800
H     -7.60773500     2.62328900    -0.00011700
H     -5.47974000     3.87544000    -0.00057800
H     -3.30104400     2.72762000    -0.00065500
H     -0.53700800     0.77738100     0.00108100
H     -2.03047000     0.78203800    -0.00054300
H      1.64999900     1.65279100     0.00107000
