042
BNPAH_000465_PAH60   C24_H16_N01_B01 -1003.17606297     0.01900000     7.85768000  5254.74822352     8.37397432   227.86744794 21985.86656721    30.55086176     0.04868590     1.32481074   127.82480560    -4.84960000    -0.17821951  -111.83443364  -467.91527035    -2.67270000    -0.09821991   -61.63392667  -257.87634920     2.17690000     0.07999960    50.20050697   210.03892115
C     -2.75703100     0.01797300    -0.00039800
C     -2.65795200     1.42660700     0.00203600
C     -1.42183800     2.05116100     0.00241300
C     -0.21275300     1.30280600     0.00045500
C     -0.32923300    -0.11638000    -0.00201400
C      0.87665900    -0.86594900    -0.00434500
C      2.11085800    -0.27154800    -0.00383100
C      2.32594000     1.15545000    -0.00076600
C      3.63131600     1.86318900     0.00020400
C      4.95687000     1.22555900     0.00105400
C      5.18759100    -0.17062900     0.00362300
C      6.42429300    -0.78277800     0.00412000
C      7.55244800     0.04496000     0.00207900
C      7.36205000     1.39823600     0.00021400
N      6.12546400     2.02612200    -0.00002200
C      6.10971100     3.43757800    -0.00091800
C      7.32273100     4.18959400    -0.00196800
C      7.35016400     5.56998100    -0.00235500
B      6.04870300     6.36648900    -0.00160200
C      4.80781400     5.51065700    -0.00050200
C      4.83953000     4.10778200    -0.00021600
C      3.62375200     3.28944900     0.00051500
C      2.38485900     3.98126200     0.00157400
C      1.18640400     3.33406100     0.00198700
C      1.10887000     1.92106400     0.00069800
C     -1.60274300    -0.74104900    -0.00242600
H     -3.73799000    -0.46266800    -0.00070300
H     -3.56587100     2.03434300     0.00362700
H     -1.39998200     3.14031300     0.00432100
H      0.81821600    -1.95756200    -0.00672300
H      4.33964500    -0.82599600     0.00573900
H      2.91834100    -0.98355500    -0.00642300
H      6.50197800    -1.87058900     0.00611100
H      8.57202500    -0.34217300     0.00224100
H      8.21424200     2.06092000    -0.00095500
H      8.28702500     3.68275600    -0.00247100
H      8.34998600     6.02130900    -0.00317800
H      6.01048000     7.57721300    -0.00188600
H      3.82770500     5.98955600     0.00001200
H      2.38740000     5.06661800     0.00216500
H      0.27630800     3.93093700     0.00291700
H     -1.65207800    -1.83307000    -0.00440000
