042
BNPAH_000481_PAH50   C24_H16_N01_B01 -1003.18547568     0.00000000    11.93693000  5260.65478585     8.38338703   228.12358072 22010.57962400    30.58520224     0.04874062     1.32629989   127.96848617    -4.33800000    -0.15941856  -100.03665728  -418.55337404    -3.27360000    -0.12030258   -75.49100997  -315.85438572     1.06440000     0.03911598    24.54564730   102.69898832
C     -2.95445300     0.30225500    -0.00000300
C     -2.86435900     1.72590700    -0.00000600
C     -1.64167000     2.35457900    -0.00000600
C     -0.43716600     1.57926500    -0.00000200
C      0.81855000     2.18003300    -0.00000200
N      1.99699400     1.47748900     0.00000200
C      1.92443000     0.06780000     0.00000500
C      3.14294900    -0.66425900     0.00000800
C      4.34966600    -0.03308100     0.00000700
C      4.47003900     1.39549600     0.00000300
C      5.76040000     2.02617100     0.00000200
C      5.75837200     3.47416500     0.00000200
C      6.95179000     4.24471200     0.00000300
C      8.20981200     3.66805000     0.00000300
C      8.39386200     2.26618100     0.00000000
C      9.72360900     1.75143900    -0.00000100
C      9.97005600     0.39474700    -0.00000500
C      8.89841700    -0.54518300    -0.00000800
C      7.56300400    -0.18024400    -0.00000600
B      7.16931000     1.31013200    -0.00000100
C      4.52615200     4.18229500     0.00000200
C      3.29946300     3.56026200     0.00000200
C      3.24580400     2.14569500     0.00000200
C      0.68226900    -0.56320700     0.00000500
C     -0.53055500     0.14189400     0.00000200
C     -1.81485800    -0.47267200     0.00000100
H     -3.93829500    -0.17180800    -0.00000300
H     -3.78120100     2.31949500    -0.00001000
H     -1.57419300     3.44498500    -0.00000900
H      0.90085700     3.26050200    -0.00000500
H      3.07128400    -1.75256500     0.00001200
H      6.88658700    -1.04312000    -0.00001000
H      6.85231500     5.33418000     0.00000500
H      9.08751300     4.32786900     0.00000400
H     10.56822300     2.45259100    -0.00000000
H     10.99951800     0.02457300    -0.00000700
H      9.16922800    -1.60877300    -0.00001200
H      5.26153100    -0.61832500     0.00001000
H      4.55858100     5.27554500     0.00000300
H      2.40778000     4.18273100     0.00000100
H      0.68329000    -1.65463800     0.00000800
H     -1.88033500    -1.56315200     0.00000400
