018
BNPAH_000568_PAH01   C04_H08_N03_B03  -395.84640811     0.00000000     8.12403000  1902.47805969     3.03179177    82.49925625  7959.96820174    27.97761852     0.04458517     1.21322436   117.05835589    -4.37310000    -0.16070846  -100.84608251  -421.94000923    -2.12750000    -0.07818418   -49.06131590  -205.27254571     2.24560000     0.08252428    51.78476662   216.66746352
B      0.00000000     1.45325200     1.58987500
N     -0.00000000     2.57122700     0.62891500
C     -0.00000000     2.38747100    -0.70148000
N      0.00000000     1.19858400    -1.25702900
B      0.00000000    -1.19374100    -1.48497400
C     -0.00000000    -2.50662400    -0.77476400
C     -0.00000000    -2.56218700     0.63314400
C      0.00000000    -1.42664700     1.45941600
B      0.00000000    -0.04548800     0.87634700
N      0.00000000    -0.01406400    -0.62520700
H      0.00000000     1.80259600     2.74361100
H     -0.00000000     3.54765600     0.91751000
H     -0.00000000     3.24004700    -1.38262600
H      0.00000000     1.12259200    -2.27663200
H      0.00000000    -0.97260400    -2.68265000
H     -0.00000000    -3.45944500    -1.31523900
H     -0.00000000    -3.55399500     1.10895300
H      0.00000000    -1.58862800     2.54282900
