042
BNPAH_000012_PAH35   C24_H16_N01_B01 -1003.25030007     4.57600000     3.65385000  5301.33271426     8.44821144   229.88754263 22180.77607646    30.82170183     0.04911751     1.33655548   128.95800046    -5.26500000    -0.19348518  -121.41378528  -507.99527763    -1.99460000    -0.07330020   -45.99656906  -192.44964497     3.27040000     0.12018498    75.41721622   315.54563266
B     -0.01493600     0.71996100    -0.06297100
C     -0.09983300    -0.83621800    -0.01114200
C     -0.12445700    -3.10535800    -1.07139300
C      0.16541800     3.04294600    -1.13004700
C     -0.14834200     0.72099800     2.53938600
C      0.12063800    -0.68213600     2.51298700
C     -0.18725900     1.45553600     1.27137700
C      0.17127200    -1.44319200     1.24041800
C     -0.38771900    -3.93746700    -2.19189500
C      0.44513500     3.95151800    -2.17544400
C     -0.37890000    -1.69585700    -1.14403600
C      0.34464600     1.63835000    -1.27457400
N     -0.25999200     3.54980100     0.08829000
C      0.35295300    -3.63886700     0.15860800
C     -0.35922600     2.82629300     1.23240100
C      0.44906900    -2.84891000     1.27576100
C     -0.94509000    -3.41764400    -3.34439500
C      0.97528600     3.48155500    -3.36608800
C     -0.99605900    -1.20934900    -2.33194000
C      0.93097900     1.21998800    -2.49915900
C     -1.27353400    -2.04332200    -3.40071700
C      1.24469200     2.10715100    -3.52004300
C     -0.30683000     1.35978300     3.79017200
C      0.24475700    -1.35067800     3.75481100
C     -0.18899700     0.67443100     4.99213800
C      0.09789400    -0.69714100     4.97238400
H      0.26835200     5.02143600    -2.02829900
H     -0.16437100    -5.00528000    -2.11551000
H     -0.40726200     4.55227300     0.14562900
H      0.59527000    -4.70362300     0.21708900
H     -0.58232700     3.43638600     2.11167100
H      0.76107100    -3.31822500     2.20817000
H     -1.15682200    -4.06661400    -4.19772500
H      1.20355300     4.18201800    -4.17308700
H     -1.28546500    -0.15940100    -2.38313500
H      1.14945900     0.15951200    -2.63627000
H     -1.76077200    -1.63775200    -4.29110200
H      1.69834900     1.74137200    -4.44403700
H     -0.31460900     1.20308800     5.94027200
H      0.19854400    -1.25665400     5.90540300
H      0.44251400    -2.42169500     3.77681400
H     -0.51704600     2.43098600     3.82441600
