042
BNPAH_000441_PAH68   C24_H16_N01_B01 -1003.21463615     0.00000000     5.04681000  5278.95325922     8.41254750   228.91707762 22087.14043658    30.69158872     0.04891016     1.33091324   128.41360720    -4.53630000    -0.16670595  -104.60956395  -437.68641555    -2.60000000    -0.09554824   -59.95742483  -250.86186549     1.93630000     0.07115771    44.65213912   186.82455006
C      2.25380300     2.06697900     0.00003200
C      3.28824800     1.15608200    -0.00002400
C      3.05167100    -0.24477700    -0.00002800
C      4.18053000    -1.11036900    -0.00006800
C      3.99845000    -2.46109800    -0.00005600
C      2.69210500    -3.03483300    -0.00002000
C      2.64911300    -4.47462300    -0.00000500
C      1.47452700    -5.15020600     0.00002600
C      0.23301600    -4.43589500     0.00002800
C     -0.94772000    -5.17583300     0.00004200
C     -2.23314700    -4.59485400     0.00002400
C     -3.40100800    -5.39490600     0.00003800
C     -4.67492400    -4.81982300     0.00001200
C     -5.87633100    -5.59467400     0.00002400
C     -7.11024800    -4.99520500    -0.00000300
N     -7.24469200    -3.61927700    -0.00004500
C     -6.21825700    -2.74475500    -0.00006200
B     -4.79747400    -3.27456600    -0.00003400
C     -3.52589100    -2.46550500    -0.00004700
C     -2.28771400    -3.13746800    -0.00001700
C     -1.05970300    -2.40751800    -0.00002500
C      0.21732400    -2.96902300     0.00000500
C      1.51191700    -2.23623200     0.00000100
C      1.70752400    -0.78043200     0.00001700
C      0.68050800     0.21170100     0.00008700
C      0.93551700     1.57278800     0.00009300
H      2.44933600     3.14166800     0.00003700
H      4.32749900     1.49565300    -0.00006400
H      5.18214400    -0.67343100    -0.00009900
H      4.85516600    -3.13952700    -0.00007700
H      3.60212800    -5.00927800    -0.00001600
H      1.44847900    -6.24268600     0.00004000
H     -0.86754300    -6.26697300     0.00006200
H     -3.27218900    -6.48465000     0.00006800
H     -5.84583100    -6.68974200     0.00005600
H     -8.04769500    -5.55133300     0.00000500
H     -8.19838800    -3.26313500    -0.00006300
H     -6.53766100    -1.69750400    -0.00009500
H     -3.48726200    -1.36863900    -0.00007800
H     -0.36273400    -0.06510600     0.00014800
H     -1.20680500    -1.33763500    -0.00006700
H      0.09115300     2.26664800     0.00014900
