042
BNPAH_000473_PAH59   C24_H16_N01_B01 -1003.20211859     0.00000000    13.80855000  5271.09837496     8.40002995   228.57645760 22054.27560083    30.64592078     0.04883738     1.32893289   128.22253254    -4.15690000    -0.15276326   -95.86039203  -401.07988026    -2.83890000    -0.10432765   -65.46658975  -273.91221152     1.31800000     0.04843561    30.39380228   127.16766874
C      2.19362600     3.56350000     0.00000100
C      2.20226100     2.17628200     0.00000100
C      1.00453200     1.42588100     0.00000000
C     -0.24507700     2.10786400    -0.00000000
C     -0.22345300     3.52332900     0.00000000
C      0.96378400     4.24092400     0.00000100
C     -1.50727500     1.35765300    -0.00000100
C     -1.47451500    -0.09216600    -0.00000100
C     -2.71279200    -0.79496000    -0.00000100
C     -3.95598100    -0.18115700    -0.00000100
C     -3.97695800     1.27168300    -0.00000100
C     -5.21246400     1.96152400    -0.00000100
C     -6.44897800     1.30733100    -0.00000100
C     -6.58204200    -0.09874100    -0.00000000
C     -7.85894200    -0.73490500     0.00000100
C     -7.96018700    -2.11286900     0.00000200
C     -6.80705900    -2.96282000     0.00000100
C     -5.51112700    -2.47814100     0.00000000
B     -5.30675900    -0.96499200    -0.00000000
C     -2.74622900     1.98271200    -0.00000100
C     -0.23070300    -0.77787700    -0.00000100
C     -0.13144400    -2.21120200    -0.00000100
C      1.07412900    -2.85000500    -0.00000100
N      2.22938600    -2.11803000    -0.00000000
C      2.20581800    -0.75493600     0.00000000
C      1.01881200    -0.04318200    -0.00000000
H      3.13447900     4.11795700     0.00000200
H      3.16818000     1.66792900     0.00000100
H     -1.16499400     4.07183500    -0.00000000
H      0.93754600     5.33310800     0.00000100
H     -2.69862300    -1.88672400    -0.00000100
H     -5.19129600     3.05585400    -0.00000200
H     -7.35183500     1.93373500    -0.00000100
H     -8.77393000    -0.12817100     0.00000100
H     -8.94944500    -2.58073500     0.00000200
H     -6.99353600    -4.04490600     0.00000200
H     -4.70494600    -3.22494900     0.00000000
H     -2.80514100     3.07291100    -0.00000100
H     -1.03032100    -2.82393200    -0.00000100
H      1.18251900    -3.93428400    -0.00000100
H      3.12498200    -2.59497200     0.00000000
H      3.18329900    -0.27734300     0.00000000
