042
BNPAH_000200_PAH41   C24_H16_N01_B01 -1003.20069806     0.00000000    12.60315000  5270.20697572     8.39860941   228.53780287 22050.54598641    30.64073823     0.04882912     1.32870816   128.20084875    -4.31990000    -0.15875340   -99.61926136  -416.80698952    -2.85760000    -0.10501486   -65.89782200  -275.71648725     1.46230000     0.05373853    33.72143936   141.09050227
C      2.71070400     0.46139500    -0.00000200
C      2.75742700    -0.91097000    -0.00000100
C      1.56893500    -1.69050700    -0.00000000
C      1.60129300    -3.10284100     0.00000000
C      0.42107100    -3.82231000     0.00000100
C     -0.87480100    -3.22991400     0.00000100
C     -2.02411000    -4.03565700     0.00000200
B     -3.40109000    -3.40645700     0.00000200
C     -4.75466800    -4.11015100     0.00000100
C     -5.94262600    -3.38344500     0.00000100
C     -5.89254100    -1.91926700     0.00000100
C     -7.12644500    -1.17631300     0.00000100
C     -8.34366400    -1.78732600     0.00000100
C     -8.45636000    -3.22503600    -0.00000000
C     -9.72680200    -3.84611800    -0.00000100
C     -9.85128100    -5.22860400    -0.00000200
C     -8.69149300    -6.02275600    -0.00000200
C     -7.43422500    -5.42802100    -0.00000100
C     -7.27299800    -4.02451300     0.00000000
C     -4.68166200    -1.21312400     0.00000200
C     -3.42762800    -1.85969600     0.00000200
C     -2.21447100    -1.13747800     0.00000100
C     -0.96226700    -1.76155200     0.00000100
C      0.28232000    -1.00947700    -0.00000000
C      0.32114400     0.38555500    -0.00000100
N      1.49024400     1.07249500    -0.00000200
H      3.58583200     1.10960600    -0.00000300
H      3.72801400    -1.40961200    -0.00000200
H      2.56704000    -3.61309900     0.00000000
H      0.46726000    -4.91536000     0.00000100
H     -1.84154300    -5.11860500     0.00000200
H     -4.82914100    -5.20306500     0.00000100
H     -7.06143500    -0.08418600     0.00000200
H     -9.26321000    -1.19542400     0.00000000
H    -10.61834900    -3.21241200    -0.00000100
H    -10.83976200    -5.69467900    -0.00000300
H     -8.77391200    -7.11267100    -0.00000200
H     -6.55125400    -6.06852800    -0.00000100
H     -4.73995200    -0.11565800     0.00000200
H     -2.26736000    -0.04057100     0.00000100
H     -0.57835500     0.99857500    -0.00000000
H      1.44982300     2.08776600    -0.00000200
