042
BNPAH_000490_PAH72   C24_H16_N01_B01 -1003.22201436     0.00000000     6.98714000  5283.58315752     8.41992572   229.11784901 22106.51193106    30.71850673     0.04895306     1.33208052   128.52623216    -4.58880000    -0.16863529  -105.82024272  -442.75189553    -2.87400000    -0.10561755   -66.27601499  -277.29884670     1.71480000     0.06301774    39.54422773   165.45304883
C      2.80063700     0.31560000    -0.00000100
C      2.82394200    -1.10570800    -0.00000100
C      1.64638500    -1.82334500    -0.00000100
C      0.38516000    -1.15776800    -0.00000000
C     -0.84006200    -1.86452600     0.00000000
C     -2.07563200    -1.22035300     0.00000000
C     -2.09065600     0.22371000     0.00000100
C     -3.35697500     0.92008500     0.00000100
C     -4.54214300     0.25386300     0.00000100
C     -4.59647100    -1.18953900     0.00000000
C     -3.35710000    -1.93986200     0.00000000
C     -3.45211000    -3.32555000     0.00000100
C     -4.70449000    -3.98638000     0.00000100
C     -4.77287000    -5.39129300     0.00000100
N     -5.94936100    -6.00771500     0.00000100
C     -7.19146900    -5.36956800     0.00000000
C     -8.33790800    -6.17210400     0.00000000
C     -9.60851100    -5.57320100    -0.00000100
C     -9.78774500    -4.18609000    -0.00000100
B     -8.59885900    -3.25466100    -0.00000100
C     -7.21527100    -3.93003600    -0.00000000
C     -5.94924900    -3.24920600     0.00000000
C     -5.83035400    -1.84116400    -0.00000000
C     -0.88955300     0.93227300     0.00000100
C      0.36304700     0.28157000     0.00000000
C      1.59924200     0.99196800    -0.00000000
H      3.74197400     0.87026000    -0.00000100
H      3.78341400    -1.62848600    -0.00000200
H      1.66503300    -2.91655500    -0.00000100
H     -0.78899800    -2.95547500    -0.00000000
H     -3.33919000     2.01304600     0.00000100
H     -5.48769000     0.80104000     0.00000100
H     -2.55078300    -3.94243700     0.00000100
H     -3.88159700    -6.02188100     0.00000100
H     -5.96301100    -7.02653300     0.00000100
H     -8.23452300    -7.26204800     0.00000100
H    -10.47549600    -6.24543500    -0.00000100
H    -10.82452700    -3.82954800    -0.00000200
H     -8.71717200    -2.04875100    -0.00000200
H     -6.74579600    -1.24868200    -0.00000000
H     -0.91937600     2.02554500     0.00000100
H      1.57768400     2.08492000     0.00000000
