042
BNPAH_000519_PAH75   C24_H16_N01_B01 -1003.21125804     0.00000000     7.29722000  5276.83346696     8.40916940   228.82515473 22078.27122576    30.67926434     0.04889052     1.33037881   128.36204200    -4.47550000    -0.16447159  -103.20748263  -431.82010732    -2.59450000    -0.09534612   -59.83059182  -250.33119616     1.88100000     0.06912548    43.37689081   181.48891115
C      2.80239300     0.28771000    -0.00000200
C      2.84404300    -1.13518500    -0.00000200
C      1.67535300    -1.86487500    -0.00000100
C      0.40439200    -1.21444400     0.00000000
C     -0.80780300    -1.93767600     0.00000100
C     -2.05873000    -1.31540900     0.00000200
C     -2.08848000     0.12877800     0.00000100
C     -3.36091900     0.79213000     0.00000200
C     -4.52491600     0.08173100     0.00000200
C     -4.56081200    -1.35769100     0.00000200
C     -5.82115000    -2.06150700     0.00000100
C     -7.04953200    -1.34150900    -0.00000000
C     -8.26678800    -1.97255700    -0.00000100
C     -8.34564200    -3.38428100    -0.00000100
C     -9.58671600    -4.06891900    -0.00000200
C     -9.65096500    -5.44405000    -0.00000200
C     -8.43458900    -6.16297800    -0.00000100
C     -7.24045100    -5.48965100     0.00000000
N     -7.16021800    -4.11161200     0.00000000
C     -5.87195600    -3.49973300     0.00000100
B     -4.57434500    -4.30981300     0.00000200
C     -3.33003200    -3.49086500     0.00000300
C     -3.32113100    -2.07983500     0.00000200
C     -0.89447300     0.85690600     0.00000100
C      0.36379100     0.22592500    -0.00000000
C      1.59461900     0.95007000    -0.00000100
H      3.73740200     0.85366500    -0.00000300
H      3.81000800    -1.64611400    -0.00000300
H      1.70454200    -2.95795400    -0.00000100
H     -0.74143000    -3.02643700     0.00000100
H     -3.38231700     1.88479200     0.00000200
H     -5.45702900     0.64704900     0.00000200
H     -7.04156400    -0.25275300    -0.00000000
H     -9.20042200    -1.40921200    -0.00000200
H    -10.48977400    -3.45656100    -0.00000300
H    -10.61082000    -5.96315100    -0.00000300
H     -8.41693600    -7.25344400    -0.00000000
H     -6.27343100    -5.98560500     0.00000200
H     -4.52019400    -5.51860500     0.00000300
H     -2.35676200    -3.98924500     0.00000300
H     -0.94193200     1.94991600     0.00000100
H      1.56111600     2.04299900    -0.00000100
