042
BNPAH_000374_PAH67   C24_H16_N01_B01 -1003.21891303     5.37500000     7.70693000  5281.63704101     8.41682438   229.03345741 22098.36937959    30.70719210     0.04893503     1.33158987   128.47889175    -4.85280000    -0.17833711  -111.90822739  -468.22402341    -2.27190000    -0.08349079   -52.39125903  -219.20502778     2.58090000     0.09484633    59.51696836   249.01899564
C     -2.77689700     3.64840100     0.82458100
C     -1.53179600     3.26572200     1.36501500
C     -3.50471000     2.73516600     0.08123800
C     -1.00988200     2.00868000     1.10052600
C     -3.00575000     1.43142700    -0.17062300
C     -1.69301200     1.07390000     0.28112200
C     -1.16335600    -0.25756500    -0.00606700
C     -3.83192200     0.44250900    -0.79939300
C     -3.41591600    -0.85613500    -0.87168000
C     -2.10171500    -1.24336300    -0.44680900
C      0.21832700    -0.62614300     0.17189900
C     -1.72390700    -2.61204700    -0.46224100
C     -0.46928600    -2.99421000    -0.04844700
C      0.52312300    -2.01763100     0.24584500
B      1.47009000     0.32244300     0.07519100
C      2.85635200    -0.29113200     0.45029500
C      1.84760700    -2.49677500     0.60918400
C      2.93896900    -1.69561800     0.76415700
C      1.52419900     1.72449500    -0.51789500
C      2.71707900     2.43100500    -0.56384900
C      3.96763000     1.83858300    -0.06199500
C      3.99798000     0.49270100     0.40783600
C      5.12903100     2.59635900    -0.09916300
C      2.82327300     3.77231200    -1.08302900
N      5.14141700     3.86010500    -0.58570200
C      3.99983300     4.45979800    -1.08420700
H      6.08498300     2.20769900     0.25720000
H      6.01375400     4.37785500    -0.59165800
H      4.11702200     5.47618400    -1.45879300
H      1.92902500     4.25702500    -1.47960800
H     -3.18089600     4.64424000     1.02394400
H     -4.49717700     2.99566700    -0.29707600
H     -0.97939900     3.95557500     2.00808200
H     -0.05976100     1.71905500     1.54814600
H     -4.82448500     0.73385100    -1.15308500
H     -4.07803100    -1.63085700    -1.26838300
H     -2.45982600    -3.35757800    -0.77600000
H     -0.20315600    -4.05374700     0.00412200
H      3.89772600    -2.13575600     1.06361200
H      1.94582000    -3.57569900     0.76623300
H      0.65033600     2.24244100    -0.92728300
H      4.97364300     0.07633900     0.69281700
