042
BNPAH_000415_PAH70   C24_H16_N01_B01 -1003.22715334     0.00100000     3.51026000  5286.80791652     8.42506470   229.25768779 22120.00432272    30.73725533     0.04898293     1.33289353   128.60467630    -5.21340000    -0.19158892  -120.22386101  -503.01663445    -2.36920000    -0.08706649   -54.63505035  -228.59305067     2.84420000     0.10452242    65.58881066   274.42358378
C      2.76251200    -0.53335800    -0.00012000
C      2.62056700    -1.91238200    -0.00005200
C      1.34038100    -2.51604800    -0.00001400
C      1.20893300    -3.95146700     0.00005600
C     -0.01403400    -4.55148300     0.00009100
C     -1.21897600    -3.76575000     0.00006300
C     -2.48568700    -4.35271100     0.00008300
C     -3.67267900    -3.60284000     0.00005300
C     -4.91563800    -4.30621300     0.00003400
C     -6.08309500    -3.61346700    -0.00003000
C     -6.10173900    -2.17861900    -0.00004800
C     -7.40230900    -1.58725000    -0.00013000
C     -7.56097500    -0.23468400    -0.00014700
C     -6.41084300     0.59184800    -0.00004900
N     -6.64957500     1.94329700    -0.00003900
C     -5.73784400     2.93372100     0.00008000
B     -4.27874200     2.55530400     0.00023800
C     -4.04561400     1.06930500     0.00021900
C     -5.06203000     0.07880900     0.00005700
C     -4.90646800    -1.39720300     0.00001200
C     -3.63608300    -2.15168600     0.00002100
C     -2.33741800    -1.59584900    -0.00002400
C     -1.14574400    -2.33486800    -0.00000300
C      0.17111600    -1.69377600    -0.00004500
C      0.34932000    -0.29023000    -0.00011500
C      1.61470400     0.28121800    -0.00015200
H      3.75698900    -0.08102300    -0.00014900
H      3.50315500    -2.55772400    -0.00002700
H      2.12202900    -4.55259300     0.00007700
H     -0.10233000    -5.64094600     0.00014000
H     -2.56568500    -5.44344800     0.00011300
H     -4.90317800    -5.39877400     0.00005300
H     -7.04322000    -4.13510800    -0.00006600
H     -8.27102000    -2.24887500    -0.00018500
H     -8.55528500     0.22210600    -0.00021600
H     -7.63877800     2.18992400    -0.00012700
H     -6.18733100     3.93151500     0.00006200
H     -3.39334600     3.37471900     0.00037300
H     -2.21993800    -0.52621800    -0.00009600
H     -3.01476400     0.74250300     0.00035800
H     -0.51810100     0.37127800    -0.00014200
H      1.71530500     1.36907600    -0.00020600
