042
BNPAH_000460_PAH74   C24_H16_N01_B01 -1003.18372785     0.00000000    12.27008000  5259.55800585     8.38163920   228.07601984 22005.99069648    30.57882562     0.04873046     1.32602337   127.94180639    -4.46780000    -0.16418862  -103.02991641  -431.07717025    -3.35990000    -0.12347405   -77.48113527  -324.18106995     1.10790000     0.04071457    25.54878114   106.89610030
C      8.14447500    -2.82310800    -0.00000200
C      7.00139800    -3.58489500    -0.00000200
C      5.71299700    -2.96166900    -0.00000100
C      4.51176500    -3.66981000     0.00000000
C      3.25335200    -3.03581200     0.00000100
C      2.02645700    -3.71289500     0.00000100
C      0.78773700    -3.06040000     0.00000200
C      0.78325900    -1.59725600     0.00000200
C      2.01594000    -0.95981000     0.00000200
N      3.22260700    -1.61895100     0.00000200
C      4.39663900    -0.90539600     0.00000100
C      5.64277700    -1.51337600     0.00000000
C      6.85883300    -0.75326000    -0.00000000
C      8.07241300    -1.39396900    -0.00000200
C     -0.47708300    -0.87407000     0.00000200
C     -1.70463100    -1.62208600     0.00000100
C     -1.63133800    -3.04157800     0.00000100
C     -0.44552000    -3.75415800     0.00000200
B     -3.05141800    -0.87371700     0.00000000
C     -4.45950300    -1.48596000    -0.00000100
C     -5.54610400    -0.63343600    -0.00000300
C     -5.40948400     0.79201200    -0.00000300
C     -4.17771500     1.42580400    -0.00000100
C     -2.97479400     0.66902300     0.00000000
C     -1.69812900     1.28236000     0.00000100
C     -0.51687700     0.55107400     0.00000200
H      9.12343000    -3.30749200    -0.00000300
H      7.05721700    -4.67591100    -0.00000200
H      4.51738900    -4.76113700    -0.00000000
H      2.06116100    -4.80377500     0.00000100
H      2.10713000     0.12427400     0.00000200
H      4.27912700     0.17827000     0.00000200
H      6.80263400     0.33783800    -0.00000000
H      8.99662400    -0.81209400    -0.00000200
H     -2.57335700    -3.59745500     0.00000100
H     -0.43987800    -4.84662200     0.00000100
H     -4.67539500    -2.56264200    -0.00000100
H     -6.56864700    -1.03179500    -0.00000400
H     -6.32101900     1.39807200    -0.00000400
H     -4.14025400     2.52294700    -0.00000100
H     -1.62031900     2.37788000     0.00000100
H      0.41951300     1.11497000     0.00000300
