030
BNPAH_000014_PAH09   C16_H12_N01_B01  -696.08920891     0.00100000    15.13037000  3656.99555298     5.82779337   158.58233512 15300.86939367    30.47496294     0.04856494     1.32151946   127.50724494    -4.12760000    -0.15168650   -95.18471797  -398.25286001    -3.03600000    -0.11157094   -70.01182376  -292.92947063     1.09160000     0.04011556    25.17289421   105.32338937
B     -3.74860700     0.61451900    -0.12214100
C     -2.45139500     1.38689300    -0.11418300
C     -1.21630100     0.72595600    -0.00159500
C      0.02942700     1.41124300     0.01042400
C      1.25844600     0.76205100     0.12184200
C      1.30959800    -0.68903200     0.23339700
C      0.08391900    -1.37729900     0.22273300
C     -1.15491900    -0.73787700     0.11154900
C     -2.36655400    -1.50520400     0.10752300
C     -3.60732300    -0.92016600     0.00041800
C      2.59416700    -1.32343000     0.34631500
C      3.81275900    -0.52949500     0.34893800
C      5.06171800    -1.18600900     0.46183300
C      5.13998700    -2.55977700     0.56862900
N      3.98361200    -3.27649200     0.56323100
C      2.75717100    -2.71404200     0.45859600
C      3.71529100     0.88442800     0.23795800
C      2.48314000     1.49147700     0.12957300
H     -4.83425900     1.14758800    -0.21745800
H     -2.39460400     2.48071600    -0.19348800
H      0.02042600     2.50237200    -0.07199200
H      0.06771600    -2.46890400     0.30406300
H     -2.25438800    -2.59472700     0.19510700
H     -4.47054600    -1.59878700     0.00749700
H      5.98236600    -0.60048000     0.46495800
H      1.91897100    -3.40834200     0.46770100
H      4.63166700     1.47849800     0.24014900
H      2.42883000     2.58070600     0.04507600
H      6.06860900    -3.12117400     0.65800600
H      4.03820800    -4.28875200     0.64168100
