038
BNPAH_000268_PAH36   C22_H14_N01_B01  -925.87139807     0.00000000     4.59601000  4834.20689831     7.70379906   209.63105022 20226.32166253    30.59624619     0.04875822     1.32677880   128.01469406    -4.82810000    -0.17742940  -111.33863186  -465.84083569    -2.52260000    -0.09270384   -58.17253842  -243.39390073     2.30550000     0.08472556    53.16609344   222.44693496
C      6.79335000     1.04210300     0.00000000
C      5.62505700     1.77588900     0.00000000
C      4.35643100     1.12562000     0.00000000
C      4.31357000    -0.30886800    -0.00000000
C      5.53803100    -1.03716500    -0.00000000
C      6.75040300    -0.37833800    -0.00000000
C      3.05073600    -0.94529000    -0.00000000
C      1.84198400    -0.25337100    -0.00000000
C      0.55952300    -1.01250100    -0.00000000
C      0.47839900    -2.41096700    -0.00000000
C     -0.76747600    -3.07959800     0.00000000
C     -1.96676000    -2.38647700     0.00000000
C     -1.93221800    -0.96518000    -0.00000000
C     -3.12128400    -0.18781300     0.00000000
N     -3.11627100     1.15680700    -0.00000000
C     -1.97876000     1.94219800    -0.00000000
C     -1.98792200     3.35089300    -0.00000000
C     -0.76086200     4.01921700    -0.00000000
C      0.51027800     3.37693400     0.00000000
C      0.63854000     1.98579600    -0.00000000
C      1.88581700     1.20823300     0.00000000
C      3.13343400     1.83177500     0.00000000
B     -0.65492700     1.20975100    -0.00000000
C     -0.66994200    -0.29127000    -0.00000000
H      7.76002000     1.55193300     0.00000000
H      5.65664700     2.86885900     0.00000100
H      5.50154100    -2.13020600    -0.00000000
H      7.68368500    -0.94674400    -0.00000000
H      3.05000400    -2.03705200    -0.00000000
H      1.37968400    -3.02663100     0.00000000
H     -0.77565600    -4.17240400     0.00000000
H     -2.92005400    -2.92217200     0.00000000
H     -4.10559700    -0.65907200     0.00000000
H     -4.02803600     1.61617400    -0.00000000
H     -2.91851600     3.93188600    -0.00000000
H     -0.77409200     5.11285000    -0.00000000
H      1.38490600     4.03814100     0.00000000
H      3.17695400     2.92354200     0.00000000
