042
BNPAH_000158_PAH37   C24_H16_N01_B01 -1003.23244305     0.00000000     3.92961000  5290.12725844     8.43035441   229.40162808 22133.89244931    30.75655383     0.04901369     1.33373040   128.68542122    -5.07600000    -0.18653956  -117.05534171  -489.75954971    -2.15690000    -0.07926461   -49.73929601  -208.10921449     2.91910000     0.10727495    67.31604570   281.65033522
C      6.08386800     1.87617200     0.00000100
C      6.08024900     0.45631300     0.00000100
C      4.86395300    -0.18428500     0.00000000
C      3.62910900     0.52000800    -0.00000000
C      2.38786800    -0.15249900    -0.00000100
C      1.15493700     0.48957200    -0.00000100
B      1.15619800     2.01832700    -0.00000100
C      2.50839700     2.66542700    -0.00000100
N      3.66435900     1.92675400    -0.00000000
C      4.90329600     2.56272700     0.00000100
C     -0.20940000     2.76445400    -0.00000100
C     -0.30355500     4.17323100    -0.00000100
C     -1.52655100     4.83606700     0.00000000
C     -2.70675900     4.07958300     0.00000000
C     -2.64598300     2.68947300     0.00000000
C     -1.41144900     1.99843300    -0.00000000
C     -1.37354100     0.50922800    -0.00000100
C     -2.55975600    -0.22435000    -0.00000000
C     -2.60674900    -1.63728200     0.00000000
C     -3.83319200    -2.36340000     0.00000100
C     -3.83498100    -3.74304400     0.00000100
C     -2.61015000    -4.46439700     0.00000000
C     -1.40649800    -3.79108800    -0.00000100
C     -1.37162800    -2.36601400    -0.00000100
C     -0.16938100    -1.62798300    -0.00000100
C     -0.12503500    -0.23341200    -0.00000100
H      7.01710700     2.44150500     0.00000200
H      7.01522700    -0.10539000     0.00000200
H      4.80314800    -1.27420400    -0.00000000
H      2.47675100    -1.24296200    -0.00000100
H      2.71514200     3.73947300    -0.00000000
H      4.84801000     3.65093700     0.00000100
H      0.61700000     4.76437700    -0.00000100
H     -1.56885000     5.92831300     0.00000000
H     -3.68033300     4.57660400     0.00000100
H     -3.58864000     2.14161100     0.00000000
H     -3.51947500     0.29285800     0.00000100
H     -4.77523000    -1.80830500     0.00000200
H     -4.78154200    -4.28912900     0.00000200
H     -2.62774900    -5.55700700     0.00000000
H     -0.46207600    -4.34231500    -0.00000100
H      0.76429300    -2.19438400    -0.00000200
