042
BNPAH_000239_PAH64   C24_H16_N01_B01 -1003.21086352     5.03100000     7.58535000  5276.58590076     8.40877488   228.81441924 22077.23540878    30.67782500     0.04888823     1.33031639   128.35601980    -4.66890000    -0.17157891  -107.66739261  -450.48037070    -2.70990000    -0.09958699   -62.49177906  -261.46560358     1.95900000     0.07199192    45.17561356   189.01476712
C    -13.14938100    -7.82763100     9.67867400
C    -12.52269500    -7.27378700     8.54635700
C    -13.68629700    -6.97720700    10.63382600
C    -12.38741100    -5.89735900     8.42798600
C    -13.59625900    -5.56832500    10.51667300
C    -12.85845300    -4.99746800     9.42213300
C    -14.32389100    -4.74142200    11.45524400
C    -12.75600400    -3.54351100     9.30880300
C    -14.47191300    -3.39207100    11.29329300
B    -13.72149800    -2.69225100    10.14968900
C    -11.84112900    -2.85584200     8.45691800
C    -13.87469300    -1.20532500     9.77807300
C    -13.14825100    -0.69402600     8.73180900
C    -12.14410200    -1.48476000     8.10494700
N    -11.40007200    -0.89200500     7.12019700
C    -10.53848900    -3.32703900     7.99942200
C     -9.83993800    -2.66099100     6.94329500
C    -10.34540200    -1.43094800     6.49530500
C     -9.86025700    -4.40180400     8.66152500
C     -8.64854300    -4.86520000     8.22540700
C     -8.59549600    -3.20095900     6.41076400
C     -8.00301800    -4.32179200     7.06664000
C     -6.78353300    -4.85344200     6.57907900
C     -7.93791300    -2.66226400     5.27864300
C     -6.16283600    -4.30736500     5.46804100
C     -6.74925900    -3.20543500     4.81281800
H     -6.34068500    -5.70837000     7.09640200
H     -8.37270000    -1.81761200     4.74058500
H     -5.22543400    -4.72817000     5.09741500
H     -6.26858900    -2.77744100     3.93000900
H    -14.22781600    -7.38961200    11.49043500
H    -11.92476900    -5.49333100     7.52550200
H    -13.24446100    -8.91114900     9.78475300
H    -12.15123500    -7.92479800     7.75037900
H    -14.82064000    -5.27516700    12.27589400
H    -15.11581500    -2.85968600    12.00474600
H    -14.58905500    -0.53467800    10.27091300
H    -13.27582800     0.33494100     8.36732500
H    -11.68025800     0.05209000     6.85952900
H     -9.88645200    -0.82818200     5.71479900
H    -10.32285800    -4.83806300     9.54516000
H     -8.15051100    -5.67325100     8.76722700
