042
BNPAH_000095_PAH67   C24_H16_N01_B01 -1003.16257395     5.69300000    10.39105000  5246.28373369     8.36048530   227.50039292 21950.45114176    30.50164961     0.04860747     1.32267670   127.61890197    -3.83480000    -0.14092630   -88.43258952  -370.00195454    -2.98310000    -0.10962690   -68.79192077  -287.82539652     0.85170000     0.03129940    19.64066874    82.17655802
C     -2.60853000     3.74511500     0.82773800
C     -1.41496100     3.43277100     1.48261900
C     -3.29310400     2.81397900     0.02538300
B     -0.79884100     2.06412100     1.30093200
C     -2.80114700     1.51426200    -0.20129200
C     -1.50942600     1.10465700     0.31608400
C     -1.05331900    -0.21799100    -0.00527100
C     -3.62193600     0.56428000    -0.89925300
C     -3.26387100    -0.75179700    -0.99259900
C     -1.98953000    -1.19544500    -0.51176300
C      0.31696400    -0.67822800     0.15757300
C     -1.66870600    -2.56974800    -0.48295400
C     -0.44705800    -3.01894600    -0.00613200
C      0.57303900    -2.09022800     0.28144500
C      1.47527800     0.17098800     0.05430000
C      2.79446300    -0.34338900     0.38979200
C      1.88056400    -2.55751000     0.64971400
C      2.95351100    -1.72176300     0.75528400
C      1.45996800     1.47361300    -0.48120500
C      2.58355100     2.28120600    -0.57323600
N      3.82228000     1.78896100    -0.11198700
C      3.89550900     0.49463900     0.32680100
C      4.95129100     2.59721900    -0.13478000
C      2.54827800     3.62247000    -1.07242800
C      4.90260700     3.87361800    -0.60967600
C      3.66815400     4.40789300    -1.09505900
H      5.85849700     2.13060100     0.24876200
H      5.81424200     4.47188000    -0.60795600
H      3.62434500     5.43207400    -1.46824200
H      1.58085100     3.99276900    -1.41382000
H     -3.07152500     4.73246600     0.95782500
H     -4.26038100     3.08505000    -0.40909000
H     -0.98812900     4.20560900     2.13441500
H      0.19004100     1.71691000     1.91452700
H     -4.58539500     0.90018600    -1.29503000
H     -3.93909900    -1.48978000    -1.43454000
H     -2.42668700    -3.28788600    -0.80861300
H     -0.23952000    -4.08764300     0.08652200
H      3.93871900    -2.09207900     1.04669800
H      2.00061800    -3.62747100     0.84037100
H      0.51386000     1.90402600    -0.80768000
H      4.89087600     0.15382100     0.61388200
