036
BNPAH_000269_PAH23   C20_H14_N01_B01  -849.70081235     0.00100000     1.90226000  4498.65323829     7.16906027   195.08006644 18822.36514901    30.81269341     0.04910315     1.33616484   128.92030923    -5.52780000    -0.20314290  -127.47409730  -533.35162311    -1.94870000    -0.07161340   -44.93808991  -188.02096819     3.57910000     0.13152950    82.53600739   345.33065492
C      2.58138600    -0.21787300    -0.00001200
C      2.47802400    -1.62537800    -0.00015700
C      1.23900600    -2.24496400    -0.00016500
C      0.03108200    -1.49481800    -0.00003400
C      0.15288600    -0.07639500     0.00011200
C     -1.04871600     0.68236700     0.00026800
C     -2.28448000     0.09651700     0.00024700
C     -2.50954400    -1.33276700     0.00006100
C     -3.80902500    -2.02683300     0.00001600
C     -3.79077700    -3.45533100     0.00003500
C     -4.96530800    -4.29167600     0.00012100
C     -6.21941500    -3.77965400     0.00017800
B     -6.35961600    -2.26842900     0.00008200
C     -7.71835200    -1.58074400     0.00006500
C     -7.80071100    -0.21342100    -0.00010500
C     -6.58869300     0.52859300    -0.00028400
C     -5.35358100    -0.06692200    -0.00025400
N     -5.11911700    -1.43258800    -0.00003700
C     -2.56418400    -4.16521300    -0.00002500
C     -1.35822100    -3.52956800    -0.00008400
C     -1.29249900    -2.11589900    -0.00003100
C      1.42818200     0.54349100     0.00012300
H      3.56335100     0.26080800    -0.00000400
H      3.38351000    -2.23684500    -0.00026400
H      1.21482600    -3.33395300    -0.00028000
H     -0.98301900     1.77344400     0.00041500
H     -4.50707500     0.58980500    -0.00045200
H     -4.77513200    -5.37099700     0.00014800
H     -7.08220800    -4.45283400     0.00025300
H     -8.63968400    -2.17326100     0.00016700
H     -8.75485600     0.32428200    -0.00013700
H     -6.60631200     1.62066700    -0.00046300
H     -3.09022300     0.81094300     0.00041800
H     -2.61135300    -5.25646100    -0.00002800
H     -0.44702200    -4.12350200    -0.00013700
H      1.47994900     1.63541500     0.00024300
