038
BNPAH_000426_PAH49   C22_H14_N01_B01  -925.84154097     0.00000000    10.19792000  4815.47128328     7.67394196   208.81859706 20147.93184924    30.47766635     0.04856925     1.32163669   127.51855601    -4.44640000    -0.16340219  -102.53642068  -429.01238413    -3.12420000    -0.11481223   -72.04576410  -301.43947699     1.32220000     0.04858995    30.49065658   127.57290714
C     -7.28778800    -1.72598000    -0.00000000
C     -6.07692200    -2.38202600    -0.00000000
C     -4.84726600    -1.65973200     0.00000000
C     -4.85083600    -0.21985300     0.00000000
C     -6.12798200     0.41485900    -0.00000000
C     -7.30499000    -0.30885100    -0.00000000
C     -3.60327400     0.51019100     0.00000000
C     -2.35698100    -0.21235600     0.00000000
C     -2.39995300    -1.65995500     0.00000000
C     -3.61370400    -2.34316500     0.00000000
C     -1.13490200    -2.35912000     0.00000000
N     -1.12198900    -3.72332100     0.00000000
C     -0.02005800    -4.50520900    -0.00000000
C      1.22132400    -3.89187500    -0.00000000
C      1.28386400    -2.49712800    -0.00000000
C      0.12853400    -1.68241900     0.00000000
C      0.14156300    -0.23230900     0.00000000
C     -1.10770900     0.48199200     0.00000000
B     -1.08476900     2.01475800     0.00000000
C     -2.45282900     2.70525300     0.00000000
C     -3.59870200     1.94865200     0.00000000
C      0.28425000     2.67885600    -0.00000000
C      1.42657500     1.88193900    -0.00000000
C      1.36038600     0.47599200    -0.00000000
H     -8.22493300    -2.28731600    -0.00000100
H     -6.03895900    -3.47548800    -0.00000000
H     -6.18716000     1.50253100    -0.00000000
H     -8.26134400     0.22004200    -0.00000100
H     -3.66923700    -3.43832400     0.00000000
H     -2.03219700    -4.18009500     0.00000000
H     -0.18143100    -5.58260600    -0.00000000
H      2.12673300    -4.49910300    -0.00000000
H      2.26362300    -2.01971100    -0.00000000
H     -2.58012800     3.79544800     0.00000000
H     -4.57053000     2.44915600     0.00000000
H      0.43363300     3.76626400    -0.00000000
H      2.42669100     2.33276500    -0.00000100
H      2.30609600    -0.07158800    -0.00000000
