042
BNPAH_000485_PAH50   C24_H16_N01_B01 -1003.20901609     0.00000000     7.93026000  5275.42662055     8.40692745   228.76414809 22072.38498038    30.67108500     0.04887749     1.33002412   128.32781964    -4.74390000    -0.17433511  -109.39693371  -457.71677066    -2.98540000    -0.10971143   -68.84496004  -288.04731279     1.75850000     0.06462368    40.55197368   169.66945787
C     -2.93595800     0.19532300     0.00000200
C     -2.90838500     1.61851800     0.00000200
C     -1.70799500     2.29303500     0.00000100
C     -0.47016200     1.58059900    -0.00000000
C      0.77207000     2.24857100    -0.00000100
C      1.98662500     1.55443000    -0.00000200
C      1.94557000     0.11702400    -0.00000200
C      3.20553200    -0.56427200    -0.00000200
C      4.37193300     0.11889400    -0.00000200
N      4.45337700     1.51527300    -0.00000200
C      5.75749600     2.08125300    -0.00000100
C      5.79703100     3.52418300    -0.00000100
C      7.02065900     4.25592500     0.00000000
C      8.24315600     3.63039900     0.00000200
C      8.36422700     2.21320900     0.00000100
C      9.67479500     1.66291000     0.00000300
C      9.89327500     0.29765300     0.00000200
C      8.80500100    -0.61032200    -0.00000000
C      7.47623100    -0.20771900    -0.00000200
B      7.12028800     1.29148500    -0.00000100
C      4.59303400     4.26300900    -0.00000200
C      3.36398900     3.64660300    -0.00000200
C      3.27395300     2.24358100    -0.00000200
C      0.72498900    -0.55741200    -0.00000100
C     -0.49988700     0.13872200     0.00000000
C     -1.76268200    -0.52592100     0.00000100
H     -3.89731700    -0.32363300     0.00000400
H     -3.84868300     2.17457600     0.00000300
H     -1.68608400     3.38586700     0.00000100
H      0.75349500     3.33865600    -0.00000100
H      3.23993700    -1.65488300    -0.00000100
H      6.79088900    -1.06431600    -0.00000400
H      6.95153500     5.34669100     0.00000000
H      9.15154200     4.24586200     0.00000300
H     10.53627800     2.34270900     0.00000400
H     10.91478100    -0.09320600     0.00000400
H      9.04230500    -1.68116400    -0.00000100
H      5.33511200    -0.36712400    -0.00000100
H      4.65045300     5.35443800    -0.00000200
H      2.45281100     4.23969800    -0.00000300
H      0.72136900    -1.65049200    -0.00000100
H     -1.78201400    -1.61862000     0.00000100
