042
BNPAH_000430_PAH68   C24_H16_N01_B01 -1003.17525804     0.00000000    14.67912000  5254.24312169     8.37316939   227.84554465 21983.75322115    30.54792513     0.04868122     1.32468340   127.81251874    -4.14140000    -0.15219364   -95.50295354  -399.58435760    -3.20250000    -0.11768971   -73.85140501  -308.99427856     0.93890000     0.03450394    21.65154853    90.59007904
C      2.30645900     2.06223100     0.00002300
C      3.33198000     1.15074600    -0.00001700
C      3.06580600    -0.25287600    -0.00001900
C      4.14968100    -1.12732300    -0.00004700
N      3.91921500    -2.44567400    -0.00003900
C      2.67481200    -3.03962300    -0.00001400
C      2.67233000    -4.45360000    -0.00000400
C      1.47241900    -5.12408100     0.00001700
C      0.24735400    -4.42710900     0.00001800
C     -0.94761700    -5.16670800     0.00002900
C     -2.21960700    -4.58767400     0.00001700
C     -3.39603300    -5.38116100     0.00002600
C     -4.67174600    -4.81489000     0.00000800
C     -5.85561200    -5.62431100     0.00001900
C     -7.10447100    -5.04415500    -0.00000000
C     -7.30859200    -3.61782500    -0.00003100
C     -6.26523400    -2.72106300    -0.00004400
B     -4.82123200    -3.26153700    -0.00002500
C     -3.53368000    -2.46595200    -0.00003500
C     -2.28988700    -3.12377800    -0.00001300
C     -1.06855700    -2.39617400    -0.00002000
C      0.21628100    -2.95612700     0.00000100
C      1.48978100    -2.22337100    -0.00000000
C      1.70874100    -0.77907900     0.00001300
C      0.69497700     0.22524000     0.00006300
C      0.97540700     1.57898900     0.00006700
H      2.50844000     3.13504600     0.00002600
H      4.37484700     1.47777700    -0.00004600
H      5.18822800    -0.79717800    -0.00007000
H      4.71437000    -3.08042100    -0.00005300
H      3.62589300    -4.98804000    -0.00001100
H      1.45510100    -6.21670200     0.00002800
H     -0.86731600    -6.25842300     0.00004400
H     -3.26615000    -6.47237700     0.00004800
H     -5.77144700    -6.71869400     0.00004200
H     -7.99016500    -5.68779300     0.00000800
H     -8.34992500    -3.27110900    -0.00004400
H     -6.51549500    -1.65211400    -0.00006800
H     -3.49640100    -1.36743000    -0.00005800
H     -0.34985300    -0.04679100     0.00010600
H     -1.21953500    -1.32541600    -0.00005200
H      0.14337200     2.28655900     0.00010700
