042
BNPAH_000448_PAH57   C24_H16_N01_B01 -1003.18182064     0.00000000    12.85623000  5258.36121332     8.37973199   228.02412200 22000.98331653    30.57186752     0.04871937     1.32572164   127.91269370    -4.05390000    -0.14897808   -93.48515559  -391.14189097    -3.27040000    -0.12018498   -75.41721622  -315.54563266     0.78350000     0.02879309    18.06793937    75.59625831
C      2.70585700    -0.08506100    -0.00000200
C      2.65786000    -1.46808000    -0.00000200
C      1.44053800    -2.17603200    -0.00000100
C      1.40806800    -3.60244900    -0.00000200
C      0.22591600    -4.28259200    -0.00000100
C     -1.02046800    -3.58082900     0.00000100
C     -2.24654700    -4.23962900     0.00000100
C     -3.48209300    -3.55537200     0.00000200
C     -4.71771000    -4.22679000     0.00000200
C     -5.90396400    -3.50386800     0.00000200
C     -5.97360700    -2.09677400     0.00000100
C     -7.27284600    -1.41664500     0.00000000
C     -8.49430000    -2.14354300    -0.00000100
C     -9.72352600    -1.50044900    -0.00000200
C     -9.79520100    -0.09369200    -0.00000300
C     -8.61628800     0.63667500    -0.00000100
C     -7.34080700     0.01554200     0.00000000
B     -6.04436500     0.84348800     0.00000100
C     -4.75215700     0.06433900     0.00000200
C     -4.73490000    -1.34026800     0.00000200
C     -3.47169600    -2.10161200     0.00000200
C     -2.23095700    -1.45233400     0.00000200
C     -1.01028800    -2.13930500     0.00000100
N      0.23144500    -1.46596400     0.00000100
C      0.29176500    -0.07995600     0.00000200
C      1.47801700     0.60843100     0.00000100
H      3.65659000     0.44881100    -0.00000200
H      3.57169300    -2.06418900    -0.00000400
H      2.36745100    -4.12074200    -0.00000300
H      0.21359000    -5.37473900    -0.00000100
H     -2.25003000    -5.33272500     0.00000100
H     -4.73683700    -5.31893800     0.00000200
H     -6.83258400    -4.07554700     0.00000100
H     -8.49266600    -3.23476500    -0.00000100
H    -10.64114300    -2.09552800    -0.00000300
H    -10.76672000     0.40782300    -0.00000400
H     -8.65330100     1.73012500    -0.00000100
H     -6.07679000     2.05633500     0.00000100
H     -3.78932900     0.58729500     0.00000200
H     -2.25263900    -0.36697500     0.00000200
H     -0.66049000     0.43798200     0.00000300
H      1.43927800     1.69854700     0.00000100
