018
BNPAH_000232_PAH01   C06_H08_N02_B02  -392.43948624     0.00000000     5.10082000  1990.33885469     3.17180686    86.30926089  8327.57776802    29.26968904     0.04664422     1.26925384   122.46437894    -4.68230000    -0.17207135  -107.97640396  -451.77327416    -2.64410000    -0.09716888   -60.97439500  -255.11686867     2.03820000     0.07490247    47.00200896   196.65640548
B     -0.00000000     1.19312000     1.49085800
C      0.00000000     2.47879600     0.72800800
C      0.00000000     2.50869100    -0.68612900
C      0.00000000     1.35636500    -1.47320300
C     -0.00000000    -1.37086500    -1.47114800
C     -0.00000000    -2.52410400    -0.69272000
C      0.00000000    -2.40563500     0.70579000
N     -0.00000000    -1.21967000     1.30863000
N     -0.00000000    -0.01662800     0.68158800
B     -0.00000000     0.00010500    -0.81698200
H     -0.00000000     1.03205900     2.69453100
H     -0.00000000     3.44593000     1.24286200
H      0.00000000     3.48903200    -1.18307900
H      0.00000000     1.47016200    -2.56253000
H     -0.00000000    -1.49185100    -2.55968600
H      0.00000000    -3.53261100    -1.11374400
H      0.00000000    -3.26349700     1.37968600
H      0.00000000    -1.14940100     2.32726900
