042
BNPAH_000099_PAH63   C24_H16_N01_B01 -1003.21075125     4.71000000     5.47765000  5276.51544855     8.40866261   228.81136414 22076.94063673    30.67741540     0.04888757     1.33029863   128.35430603    -4.69120000    -0.17239842  -108.18164283  -452.63199362    -2.50070000    -0.09189903   -57.66751241  -241.28087194     2.19050000     0.08049939    50.51413042   211.35112168
C      2.34946700    -0.03271500     0.55670700
C      2.32182200    -1.25562000    -0.13792800
C      1.13819200    -1.95649500    -0.39654000
B      1.10367800    -3.34797500    -1.06796600
C     -0.22863900    -4.02798800    -1.00866100
C     -1.36955600    -3.38138300    -0.50208800
C     -2.59835100    -4.11766900    -0.14837300
C     -2.57438700    -5.52593000    -0.03085400
C     -3.63000700    -6.23312000     0.53027900
C     -4.73559500    -5.53566300     1.03871700
C     -4.79922800    -4.15401300     0.90307400
C     -3.77654900    -3.42157900     0.25393300
C     -3.86152700    -1.97532400     0.03027800
C     -5.12133300    -1.27844900    -0.13499800
C     -6.37352500    -1.93105200    -0.34145900
C     -7.55543500    -1.22193400    -0.46163600
C     -7.56385700     0.18981600    -0.39308300
C     -6.36414600     0.86282000    -0.27824100
C     -5.13406100     0.15792500    -0.18424900
C     -3.89370200     0.84879000    -0.24436600
C     -2.70617700     0.16091100    -0.25807200
C     -2.64355700    -1.26171900    -0.07843300
C     -1.36855400    -1.97921900    -0.15243800
C     -0.10655500    -1.36292100     0.04229800
N     -0.00475000    -0.17648100     0.75353700
C      1.14595200     0.47282100     1.01500100
H      3.27771100     0.50139200     0.75981200
H      3.26231300    -1.69365700    -0.48404300
H      2.11968800    -3.83550300    -1.50937600
H     -0.35366800    -5.07309100    -1.30618100
H     -1.67973300    -6.06725200    -0.33877500
H     -3.57190100    -7.32044400     0.62007500
H     -5.53795200    -6.06928200     1.55411100
H     -6.40179000    -3.01392100    -0.44953000
H     -5.64092700    -3.61809300     1.34123100
H     -8.49014600    -1.76251000    -0.63052000
H     -8.50460200     0.73956500    -0.47267200
H     -6.33709100     1.95597300    -0.28800100
H     -3.90013400     1.93536200    -0.36637300
H     -0.86946000     0.19773500     1.14273800
H     -1.79730400     0.72129800    -0.48174300
H      1.05806700     1.38657200     1.60480600
