042
BNPAH_000415_PAH51   C24_H16_N01_B01 -1003.19600773     0.00000000     7.33258000  5267.26374620     8.39391908   228.41017236 22038.23151410    30.62362643     0.04880186     1.32796612   128.12925298    -4.61740000    -0.16968632  -106.47977439  -445.51137605    -2.80430000    -0.10305613   -64.66869479  -270.57381900     1.81310000     0.06663020    41.81107960   174.93755705
C     -2.86287700    -3.18263900     0.00000600
C     -2.73687200    -1.81191400    -0.00000200
C     -1.44398300    -1.20664500    -0.00000200
C     -0.27503900    -2.03810700     0.00000700
C     -0.44551800    -3.45663700     0.00001600
C     -1.70525200    -4.01275700     0.00001500
C      1.00918200    -1.45088000     0.00000800
C      1.25104400    -0.06655500    -0.00000100
C      0.04096000     0.75335900    -0.00000700
C      0.11404300     2.18291400    -0.00001000
C      1.31827200     2.80633600    -0.00000500
C      2.53331200     2.04955200    -0.00000100
C      3.74501800     2.78663200     0.00000500
C      4.94436100     2.16148000     0.00000800
N      5.05136900     0.78762500     0.00000200
C      6.39135800     0.28488200     0.00000300
B      7.64863500     1.17169400     0.00001500
C      8.95229400     0.42417500     0.00001300
C      8.99673100    -0.97767000     0.00000100
C      7.83292500    -1.74612300    -0.00001000
C      6.55626200    -1.14401800    -0.00000900
C      5.39214400    -1.94552700    -0.00002200
C      4.13213400    -1.40533800    -0.00002000
C      3.89101000    -0.00325100    -0.00000600
C      2.56861200     0.62623500    -0.00000200
C     -1.23588000     0.17956500    -0.00000800
H     -3.85385800    -3.64264600     0.00000600
H     -3.62125300    -1.16969700    -0.00000900
H      0.44123300    -4.09610000     0.00002300
H     -1.82355100    -5.09880200     0.00002200
H      3.30538600    -2.09193400    -0.00003300
H     -0.81819200     2.75223300    -0.00001300
H      1.39378600     3.89565100    -0.00000500
H      3.71580800     3.87689200     0.00000700
H      5.89829800     2.67991200     0.00001300
H      7.64215100     2.38272700     0.00002500
H      9.91632200     0.94662100     0.00002100
H      9.95934800    -1.50330300    -0.00000100
H      7.88441400    -2.83814200    -0.00002000
H      5.50000500    -3.03378700    -0.00003300
H      1.80948900    -2.17522000     0.00001700
H     -2.10014900     0.84923700    -0.00001300
