036
BNPAH_000161_PAH19   C20_H14_N01_B01  -849.66101804     0.00000000     9.76122000  4473.68192425     7.12926595   193.99720778 18717.88517106    30.64165702     0.04883059     1.32874800   128.20469297    -4.33280000    -0.15922746   -99.91674243  -418.05165031    -2.76360000    -0.10156043   -63.73013049  -266.64686595     1.56920000     0.05766704    36.18661194   151.40478436
C      2.59370900    -0.08527400     0.00000100
C      2.55387500    -1.50826700     0.00000100
C      1.34713900    -2.17306300    -0.00000000
C      0.11347300    -1.45285900    -0.00000000
C     -1.13749300    -2.10579600    -0.00000100
C     -2.35080900    -1.40754400    -0.00000100
C     -2.31313400     0.03884900    -0.00000100
B     -3.63169700     0.84287100    -0.00000100
C     -4.91206200     0.04606300    -0.00000100
C     -4.90117800    -1.35102600    -0.00000100
C     -3.65067300    -2.10421600    -0.00000100
C     -3.70544100    -3.49870400    -0.00000100
C     -4.89082000    -4.25189500    -0.00000100
C     -6.10154800    -3.57772800    -0.00000000
N     -7.30584500    -4.26375300     0.00000100
C     -8.52484900    -3.67567300     0.00000100
C     -8.61357100    -2.30275800     0.00000100
C     -7.42109500    -1.54395000     0.00000000
C     -6.15647200    -2.12969400    -0.00000000
C     -1.07201700     0.68280700    -0.00000000
C      0.15497900    -0.01397000     0.00000000
C      1.42265600     0.64097800     0.00000100
H      3.55915300     0.42687200     0.00000200
H      3.48979400    -2.07295300     0.00000100
H      1.31792700    -3.26655100    -0.00000000
H     -1.11501900    -3.19776300    -0.00000100
H     -3.61326800     2.05440700    -0.00000100
H     -5.88667800     0.54493300    -0.00000100
H     -2.77213500    -4.06263100    -0.00000100
H     -4.85679600    -5.34376000    -0.00000100
H     -7.25363200    -5.27921400     0.00000100
H     -9.38668800    -4.34379900     0.00000200
H     -9.59010700    -1.81959400     0.00000200
H     -7.50028700    -0.45659400     0.00000000
H     -1.05322800     1.77705700    -0.00000000
H      1.44655700     1.73420300     0.00000100
