042
BNPAH_000174_PAH57   C24_H16_N01_B01 -1003.21954174     0.00000000     8.25021000  5282.03156607     8.41745310   229.05056564 22100.02007244    30.70948585     0.04893868     1.33168934   128.48848880    -4.34370000    -0.15962803  -100.16810240  -419.10334044    -2.91300000    -0.10705078   -67.17537636  -281.06177469     1.43070000     0.05257726    32.99272604   138.04156575
C      2.59273000     0.06540800    -0.00000100
C      2.66421900    -1.32818900    -0.00000100
C      1.50148300    -2.13686700    -0.00000100
C      1.52926700    -3.55501700    -0.00000200
C      0.33776900    -4.26032200    -0.00000100
C     -0.94079100    -3.64922300     0.00000000
B     -2.23640300    -4.44658200     0.00000100
C     -3.54315000    -3.64817500     0.00000100
C     -4.81136900    -4.29146100     0.00000100
C     -5.99686100    -3.59338000     0.00000100
C     -6.01405300    -2.16591400     0.00000100
C     -7.26731600    -1.42443000     0.00000000
C     -8.53754800    -2.05913000    -0.00000000
C     -9.71404900    -1.32771900    -0.00000100
C     -9.67962900     0.08353400    -0.00000200
C     -8.45991300     0.73484800    -0.00000100
C     -7.24213500     0.00619300    -0.00000000
C     -5.97956300     0.67386300     0.00000000
C     -4.80670600    -0.03292600     0.00000100
C     -4.77376200    -1.46467600     0.00000100
C     -3.51788300    -2.21141200     0.00000100
C     -2.26635000    -1.54498600     0.00000100
C     -1.02372000    -2.20239500     0.00000100
C      0.22126000    -1.47208800     0.00000000
N      0.23886200    -0.10749700     0.00000100
C      1.34582600     0.67328700     0.00000100
H      3.49240700     0.68134500    -0.00000100
H      3.63950000    -1.82053400    -0.00000200
H      2.49561000    -4.06331100    -0.00000200
H      0.37090400    -5.35374300    -0.00000100
H     -2.23390700    -5.65847100     0.00000100
H     -4.83217000    -5.38488700     0.00000100
H     -6.93764900    -4.14454700     0.00000100
H     -8.59956800    -3.14767800    -0.00000000
H    -10.67462100    -1.84872900    -0.00000200
H    -10.61129200     0.65456300    -0.00000200
H     -8.41540400     1.82750600    -0.00000100
H     -5.96430700     1.76714400     0.00000000
H     -3.87104400     0.52738300     0.00000100
H     -2.28854700    -0.45201900     0.00000100
H     -0.67079100     0.35063100     0.00000200
H      1.18448500     1.75060600     0.00000200
