038
BNPAH_000200_PAH28   C22_H14_N01_B01  -925.84754363     0.00000000     9.12295000  4819.23800586     7.67994462   208.98193761 20163.69181652    30.50150637     0.04860724     1.32267049   127.61830265    -4.23120000    -0.15549373   -97.57379075  -408.24874049    -2.84090000    -0.10440115   -65.51271085  -274.10518219     1.39030000     0.05109258    32.06107990   134.14355831
C     -5.85446000    -2.13777600     0.00000000
C     -5.85388700    -0.72472700     0.00000000
C     -4.65946300    -0.02338700    -0.00000000
C     -3.40848700    -0.69432300    -0.00000000
C     -3.41461500    -2.12526800    -0.00000000
C     -4.65331300    -2.82130100     0.00000000
C     -2.17354200    -2.82521300    -0.00000000
C     -0.94087000    -2.19660100    -0.00000000
B      0.38405300    -3.01370500    -0.00000000
C      1.64727200    -2.21693100    -0.00000000
C      1.62461800    -0.81187500    -0.00000000
C      2.83219500    -0.06102100     0.00000000
C      2.87258800     1.32821800    -0.00000000
C      4.07669400     2.10968200     0.00000000
C      4.04658300     3.49197800     0.00000000
C      2.81362700     4.15778300     0.00000000
N      1.68381000     3.41340500    -0.00000000
C      1.62786500     2.05632700    -0.00000000
C      0.36689000     1.36408100    -0.00000000
C     -0.86630800     2.07538400    -0.00000000
C     -2.06909800     1.41625800    -0.00000000
C     -2.13196100    -0.00350500    -0.00000000
C     -0.91062400    -0.74672900    -0.00000000
C      0.35427300    -0.05996200    -0.00000000
H     -6.80111400    -2.68340500     0.00000000
H     -6.80131300    -0.18027300     0.00000000
H     -4.69633000     1.06695500     0.00000000
H     -4.63589200    -3.91429900     0.00000000
H     -2.20261200    -3.91918300    -0.00000000
H      0.33678900    -4.22465700     0.00000000
H      2.64848400    -2.66485000     0.00000000
H      3.77626500    -0.61098000     0.00000000
H      5.03452300     1.58469200     0.00000000
H      4.96634900     4.07820000     0.00000000
H      2.69135900     5.23928700     0.00000000
H      0.79398900     3.90736600    -0.00000000
H     -0.88902600     3.16987500     0.00000000
H     -2.98757400     2.00329800    -0.00000000
