038
BNPAH_000081_PAH62   C22_H14_N01_B01  -925.83928058     0.00000000     6.96892000  4814.05286778     7.67168157   208.75708874 20141.99719879    30.46868904     0.04855495     1.32124740   127.48099494    -4.75300000    -0.17466953  -109.60678470  -458.59478719    -2.75310000    -0.10117456   -63.48799473  -265.63376996     1.99990000     0.07349497    46.11878997   192.96101723
C      4.70006300     2.12382300    -0.00000500
C      4.91066200     0.70968900    -0.00001200
C      3.88614700    -0.21603800    -0.00001200
B      2.41282800     0.25666100    -0.00000200
C      2.27853000     1.80252900     0.00000300
C      3.43136900     2.65139500     0.00000200
C      1.01299700     2.39127300     0.00000700
C     -0.18326200     1.65755900     0.00000600
C     -1.41406600     2.37213400     0.00000700
C     -2.62518100     1.73953200     0.00000400
C     -2.68322700     0.31577400    -0.00000000
C     -1.44841800    -0.44163000    -0.00000000
N     -1.54416500    -1.83445600    -0.00000400
C     -2.77402200    -2.44730300    -0.00000900
C     -3.95535600    -1.73883800    -0.00000900
C     -3.91885200    -0.34861700    -0.00000500
C     -0.35827900    -2.62595100    -0.00000000
C     -0.44783600    -4.03813900     0.00000100
C      0.68823700    -4.82764300     0.00000600
C      1.95349200    -4.21592300     0.00001200
C      2.04561100    -2.83932800     0.00001000
C      0.91176200    -1.97751100     0.00000300
C      1.06062000    -0.53458400     0.00000100
C     -0.17097000     0.20430200     0.00000200
H      5.56989500     2.78704100    -0.00000600
H      5.95185200     0.36407800    -0.00001900
H      3.02305100    -2.37635200     0.00001600
H      3.29465200     3.73998100     0.00000600
H      0.92003500     3.48568100     0.00001000
H     -1.36605200     3.46424600     0.00001000
H     -3.56345900     2.29718500     0.00000500
H     -2.77652500    -3.52853400    -0.00001200
H     -4.89577900    -2.29108300    -0.00001300
H     -4.83879800     0.23890800    -0.00000500
H     -1.40586900    -4.55118200    -0.00000200
H      0.58915100    -5.91499300     0.00000700
H      2.86162000    -4.82273100     0.00001700
H      4.24663200    -1.24916700    -0.00002000
