036
BNPAH_000253_PAH20   C20_H14_N01_B01  -849.61417241     0.00300000    14.86792000  4444.28584528     7.08242031   192.72247316 18594.89197665    30.44031401     0.04850973     1.32001694   127.36227382    -4.18130000    -0.15365994   -96.42306940  -403.43412238    -3.13280000    -0.11512828   -72.24408481  -302.26925085     1.04850000     0.03853166    24.17898459   101.16487153
N      2.01297400     0.52674500    -0.00026000
C      2.18023200    -0.82722600    -0.00066800
C      1.07932400    -1.65289100    -0.00059100
C     -0.27476900    -1.19916400    -0.00006600
C     -0.36559700     0.26523300     0.00019500
C     -1.61027700     0.92497800     0.00045700
C     -2.74323600     0.15423600     0.00038300
C     -2.73855500    -1.26214100     0.00017000
C     -1.49483700    -2.02468700     0.00010300
C     -1.57032900    -3.48032000     0.00017500
C     -0.42982900    -4.35325500     0.00052800
C     -0.45464200    -5.73419300     0.00053700
B     -1.78096400    -6.47685400     0.00017800
C     -2.96977900    -5.54975900    -0.00007800
C     -2.87556100    -4.15282200    -0.00003400
C     -4.09964800    -3.34611100    -0.00013300
C     -5.38508600    -3.95109900    -0.00031400
C     -6.55319000    -3.21172500    -0.00033900
C     -6.48975600    -1.80616200    -0.00017500
C     -5.25512400    -1.18779600     0.00000300
C     -4.03495600    -1.92558600     0.00002700
C      0.78542400     1.06126700     0.00013400
H      2.82696600     1.13679900    -0.00031100
H      3.20372800    -1.19787600    -0.00105800
H      0.56184600    -3.92880100     0.00091100
H     -1.65861100     2.01539500     0.00063200
H     -3.69762000     0.67346600     0.00050300
H      1.32633500    -2.70212100    -0.00102100
H      0.52976500    -6.22121200     0.00083900
H     -1.88136200    -7.68596800     0.00016600
H     -3.97885700    -5.96799200    -0.00027300
H     -5.46131500    -5.03605000    -0.00043000
H     -7.51988700    -3.72136700    -0.00048000
H     -7.40226700    -1.20550200    -0.00019200
H     -5.24661700    -0.09932100     0.00011500
H      0.71991800     2.14987100     0.00036700
