034
BNPAH_000097_PAH31   C20_H12_N01_B01  -848.47714691     0.00000000    13.16955000  4357.44933805     6.94403753   188.95688584 18231.56803040    30.26006485     0.04822248     1.31220060   126.60811133    -4.00120000    -0.14704139   -92.26986471  -386.05711393    -2.79430000    -0.10268863   -64.43808931  -269.60896567     1.20690000     0.04435276    27.83177540   116.44814826
C     -1.86854800    -4.06921300     0.00000000
C     -3.07020800    -3.37522000     0.00000000
C     -3.13443100    -1.95368200    -0.00000000
C     -4.38414900    -1.28108700     0.00000000
B     -4.46240000     0.20594800     0.00000000
C     -3.10127700     0.93493700    -0.00000000
C     -3.01786200     2.35175700    -0.00000000
C     -1.81979500     3.04805800    -0.00000000
C     -0.59295200     2.34541700    -0.00000000
C      0.66044700     3.02823000     0.00000000
C      1.85741300     2.35608900     0.00000000
C      1.86369900     0.92925400     0.00000000
C      3.05655700     0.20233800     0.00000000
N      3.01332000    -1.14497500     0.00000000
C      1.86469600    -1.86859100    -0.00000000
C      0.62089200    -1.23280500    -0.00000000
C     -0.63595200    -1.97099200    -0.00000000
C     -0.65255600    -3.37687500    -0.00000000
C     -1.86976900    -1.23322400    -0.00000000
C     -1.86544200     0.19620000    -0.00000000
C     -0.61664500     0.90958500    -0.00000000
C      0.61327100     0.20530100    -0.00000000
H     -1.86698400    -5.16233700     0.00000000
H     -4.01432500    -3.92682000     0.00000000
H     -5.26013000    -1.94225500     0.00000000
H     -5.49233700     0.84800400     0.00000000
H     -3.95809500     2.91094000    -0.00000000
H     -1.80550300     4.14127800    -0.00000000
H      0.65098400     4.12139500     0.00000000
H      2.80756700     2.89477200     0.00000000
H      4.04242000     0.66659700     0.00000000
H      3.89363600    -1.65456600     0.00000000
H      1.99174000    -2.94820900    -0.00000000
H      0.27669800    -3.94955000    -0.00000000
