042
BNPAH_000650_PAH57   C24_H16_N01_B01 -1003.29407774     0.00000000     2.18954000  5328.80361805     8.49198911   231.07879376 22295.71433792    30.98141638     0.04937203     1.34348136   129.62624613    -5.23010000    -0.19220263  -120.60897216  -504.62793951    -2.32410000    -0.08540910   -53.59501963  -224.24156215     2.90600000     0.10679353    67.01395252   280.38637736
C      2.79969300    -0.08652400    -0.00000000
C      2.70287900    -1.45654900    -0.00000000
C      1.44545800    -2.15132300    -0.00000000
C      1.39532500    -3.58590100    -0.00000100
C      0.20969900    -4.26459000    -0.00000000
C     -1.03629300    -3.55459400    -0.00000000
C     -2.26725000    -4.22625200     0.00000000
C     -3.49269700    -3.54592600     0.00000000
C     -4.73907600    -4.25270100     0.00000100
C     -5.93030600    -3.58556500     0.00000100
C     -5.99810700    -2.14960000     0.00000000
C     -7.27433600    -1.45764100     0.00000000
C     -8.52328200    -2.13556900    -0.00000000
C     -9.72166400    -1.44251400    -0.00000100
C     -9.73405400    -0.03005700    -0.00000100
C     -8.53790400     0.66211900    -0.00000000
C     -7.29620300    -0.02569700     0.00000000
C     -6.05851700     0.68487200     0.00000000
C     -4.86013400     0.02132500     0.00000000
C     -4.78896800    -1.40693400     0.00000000
C     -3.50740200    -2.10642700     0.00000000
C     -2.27178100    -1.44012400     0.00000000
C     -1.03796500    -2.11339400     0.00000000
C      0.23746000    -1.42207100    -0.00000000
N      0.30566400    -0.04958000     0.00000000
B      1.51225100     0.72641000     0.00000000
H      3.79797000     0.36150000    -0.00000000
H      3.60129900    -2.08597400    -0.00000100
H      2.34357400    -4.12986900    -0.00000100
H      0.18971900    -5.35682500    -0.00000100
H     -2.27139000    -5.31977400     0.00000000
H     -4.71954500    -5.34539300     0.00000100
H     -6.85453900    -4.16331600     0.00000100
H     -8.55174600    -3.22556100    -0.00000000
H    -10.66485800    -1.99409000    -0.00000100
H    -10.68442600     0.50879300    -0.00000100
H     -8.52975100     1.75533700    -0.00000000
H     -6.08078600     1.77764000     0.00000000
H     -3.94090300     0.60768900     0.00000100
H     -2.27969500    -0.34961600     0.00000000
H     -0.58993500     0.42828600     0.00000000
H      1.40634200     1.92597900     0.00000000
