042
BNPAH_000276_PAH72   C24_H16_N01_B01 -1003.21291799     0.00000000    11.71260000  5277.87510011     8.41082935   228.87032422 22082.62941886    30.68532035     0.04890017     1.33064142   128.38738034    -4.20950000    -0.15469627   -97.07337686  -406.15500877    -2.75050000    -0.10107901   -63.42803731  -265.38290809     1.45900000     0.05361726    33.64533955   140.77210068
N      2.72989600     0.43918900    -0.00000300
C      2.83371000    -0.93552400    -0.00000300
C      1.70674700    -1.70397600    -0.00000100
C      0.39784800    -1.10580200     0.00000000
C     -0.77744500    -1.83841500     0.00000100
C     -2.06515800    -1.23120500     0.00000200
C     -2.11085500     0.23332600     0.00000200
C     -3.39623700     0.88167000     0.00000200
C     -4.54525300     0.14910200     0.00000200
C     -4.53306000    -1.29359500     0.00000200
C     -3.26640300    -1.99747800     0.00000200
B     -3.32291600    -3.52964600     0.00000300
C     -4.70748800    -4.19566900     0.00000200
C     -4.84700700    -5.61640400     0.00000200
C     -6.07481900    -6.23381000     0.00000100
C     -7.27603000    -5.45966300     0.00000000
C     -8.55020700    -6.08839600    -0.00000100
C     -9.71627200    -5.34597800    -0.00000300
C     -9.64534500    -3.93536600    -0.00000300
C     -8.41584800    -3.29803800    -0.00000200
C     -7.19662000    -4.02634700    -0.00000000
C     -5.88586300    -3.39078600     0.00000100
C     -5.75239700    -1.97091700     0.00000100
C     -0.93693100     0.97541200     0.00000100
C      0.33863600     0.35192700    -0.00000000
C      1.52650300     1.07315500    -0.00000100
H      3.57802200     0.99600300    -0.00000400
H      3.84556900    -1.33942400    -0.00000400
H      1.80342100    -2.79074600    -0.00000100
H     -0.72566000    -2.92752100     0.00000100
H     -3.42790700     1.97451400     0.00000200
H     -5.51429900     0.65747200     0.00000200
H     -2.33414300    -4.23080300     0.00000300
H     -3.93559200    -6.22153400     0.00000300
H     -6.15599700    -7.32448800     0.00000200
H     -8.59111800    -7.18125200    -0.00000100
H    -10.68854000    -5.84522600    -0.00000400
H    -10.56395900    -3.34315100    -0.00000500
H     -8.39309400    -2.20747100    -0.00000200
H     -6.65349300    -1.35452400     0.00000100
H     -0.99476600     2.06778700     0.00000100
H      1.55194400     2.16357700    -0.00000200
