038
BNPAH_000440_PAH76   C22_H14_N01_B01  -925.84853747     0.00000000     9.86459000  4819.86165569     7.68093846   209.00898162 20166.30116741    30.50545352     0.04861353     1.32284166   127.63481753    -4.09660000    -0.15054727   -94.46984099  -395.26181469    -3.17060000    -0.11651740   -73.11577353  -305.91639644     0.92600000     0.03402987    21.35406746    89.34541825
C      9.32808900     1.98229600    -0.00000200
C      9.32917500     0.57723400    -0.00000200
N      8.15268100    -0.07511700    -0.00000100
C      6.92144200     0.52427100     0.00000000
C      5.73931500    -0.23179900     0.00000100
C      4.48607600     0.37408400     0.00000200
C      4.41177900     1.84599400     0.00000200
C      5.62285000     2.59114100     0.00000100
C      6.87158400     1.97630800     0.00000000
C      8.12392800     2.66502100    -0.00000100
C      3.16346000     2.48982300     0.00000200
C      1.92483700     1.80562900     0.00000100
C      0.68957500     2.54401300     0.00000100
C     -0.52050500     1.90183400    -0.00000000
C     -0.61223800     0.46808000    -0.00000100
C      0.60748200    -0.28570500     0.00000000
C      0.54057400    -1.72151200     0.00000000
C      1.74727500    -2.51417200     0.00000100
C      3.01025600    -1.97135400     0.00000200
B      3.15548300    -0.44429100     0.00000200
C      1.87147900     0.37162100     0.00000100
C     -0.72509300    -2.34217900    -0.00000100
C     -1.90736600    -1.59623900    -0.00000200
C     -1.85180100    -0.20025200    -0.00000200
H     10.28123300     2.51164500    -0.00000300
H     10.23204700    -0.03192700    -0.00000300
H      8.16237400    -1.09428600    -0.00000100
H      5.80983400    -1.32499600     0.00000100
H      5.57701000     3.68375200     0.00000100
H      8.11878900     3.75781700    -0.00000100
H      3.14986000     3.58419900     0.00000200
H      0.72875200     3.63743700     0.00000100
H     -1.44878300     2.48122800    -0.00000100
H      1.60299900    -3.60255300     0.00000100
H      3.84828300    -2.68178000     0.00000300
H     -0.77372500    -3.43537800    -0.00000100
H     -2.87423700    -2.10546200    -0.00000300
H     -2.77451000     0.38745700    -0.00000300
