036
BNPAH_000454_PAH23   C20_H14_N01_B01  -849.60978287     0.00300000    15.49328000  4441.53136825     7.07803077   192.60302773 18583.36724476    30.42144773     0.04847966     1.31919882   127.28333730    -3.91690000    -0.14394342   -90.32586051  -377.92340037    -3.07760000    -0.11309971   -70.97114256  -296.94326048     0.83930000     0.03084371    19.35471795    80.98013989
C      2.72501700    -0.27106200    -0.00010200
C      2.50680600    -1.64907800    -0.00039400
C      1.22923000    -2.24862900    -0.00037600
C      0.03868300    -1.49712000    -0.00006800
C      0.15476100    -0.05446100     0.00025200
C     -1.04422200     0.66425000     0.00060500
C     -2.31342400     0.08633800     0.00058900
C     -2.51436900    -1.31600600     0.00019400
C     -3.81567900    -2.01707600     0.00009100
C     -3.79365200    -3.47028600     0.00012400
C     -5.00780000    -4.21170600     0.00027700
C     -6.21266700    -3.60277900     0.00033600
N     -6.29083900    -2.21190400     0.00013600
C     -7.56384400    -1.68300400     0.00008600
C     -7.80956300    -0.34006000    -0.00026200
C     -6.69092700     0.52072900    -0.00063800
C     -5.41955400    -0.00329300    -0.00055400
C     -5.12490500    -1.40377000    -0.00007200
C     -2.59258900    -4.18688900     0.00000900
C     -1.38380600    -3.52143100    -0.00012300
C     -1.28900200    -2.11753800    -0.00002800
B      1.52538500     0.64933000     0.00025800
H      3.76890400     0.06532200    -0.00014800
H      3.36176800    -2.33859700    -0.00065700
H      1.20175100    -3.33980800    -0.00062700
H     -0.98680200     1.75766500     0.00092300
H     -4.59969400     0.69341300    -0.00094500
H     -4.96406700    -5.30199100     0.00035700
H     -7.16780000    -4.12436300     0.00046300
H     -8.35827700    -2.42859200     0.00031100
H     -8.83553900     0.02700700    -0.00030500
H     -6.82334700     1.60412900    -0.00101500
H     -3.12349100     0.79867300     0.00099000
H     -2.62828300    -5.27841200     0.00000400
H     -0.46894600    -4.11162100    -0.00023700
H      1.58386200     1.86262900     0.00054400
