038
BNPAH_000444_PAH48   C22_H14_N01_B01  -925.85479966     0.00000000     7.87725000  4823.79123628     7.68720065   209.17938436 20182.74253260    30.53032428     0.04865317     1.32392015   127.73887679    -4.33010000    -0.15912824   -99.85447895  -417.79113991    -2.86900000    -0.10543381   -66.16071225  -276.81642004     1.46110000     0.05369444    33.69376670   140.97471987
C      1.94250000     1.45304900     0.00000100
C      0.80941400     2.30172900     0.00000100
C     -0.47583000     1.79030300     0.00000100
C     -0.73357600     0.39159200    -0.00000000
C      0.43653300    -0.45091000    -0.00000000
C      0.24742600    -1.84057600    -0.00000100
N     -0.98878700    -2.32783600    -0.00000100
C     -2.15764600    -1.59582700    -0.00000100
C     -3.38254200    -2.38332500    -0.00000000
C     -3.36373200    -3.79610300    -0.00000000
C     -4.53685700    -4.54862600     0.00000000
C     -5.77221800    -3.90329200     0.00000100
C     -5.85109300    -2.50051900     0.00000000
C     -7.12314000    -1.83558600     0.00000100
C     -7.19506400    -0.47361700     0.00000100
C     -6.00974700     0.34109400     0.00000000
C     -6.13205900     1.74393600    -0.00000000
C     -5.01381000     2.58714500    -0.00000100
C     -3.70342100     2.10460800    -0.00000100
B     -3.44211000     0.60271800    -0.00000100
C     -2.07682400    -0.17038500    -0.00000100
C     -4.71057100    -0.27530300    -0.00000000
C     -4.64839800    -1.70336100    -0.00000000
C      1.75365600     0.08906600     0.00000000
H      2.94904200     1.87636500     0.00000100
H      0.95065000     3.38527400     0.00000200
H     -2.95098000     2.89872300    -0.00000200
H      1.06904300    -2.55798300    -0.00000100
H     -1.09817300    -3.33980300    -0.00000100
H     -2.42880900    -4.36788900    -0.00000100
H     -4.48102600    -5.63945400     0.00000000
H     -6.69708700    -4.48646000     0.00000100
H     -8.02953300    -2.44708000     0.00000100
H     -8.16843000     0.02607000     0.00000100
H     -7.13584600     2.17985900    -0.00000000
H     -5.19478500     3.66892000    -0.00000100
H     -1.31590200     2.47429900     0.00000100
H      2.60496400    -0.59672700     0.00000000
