042
BNPAH_000313_PAH68   C24_H16_N01_B01 -1003.25234370     0.00100000     3.96706000  5302.61511225     8.45025507   229.94315267 22186.14162965    30.82915763     0.04912939     1.33687879   128.98919552    -4.52410000    -0.16625761  -104.32822526  -436.50929449    -2.77860000    -0.10211167   -64.07603871  -268.09414595     1.74550000     0.06414594    40.25218656   168.41514855
C      2.12294400     2.06165300     0.00004500
C      3.18146700     1.17914900    -0.00003500
C      2.98308800    -0.22791300    -0.00003900
C      4.13451900    -1.06224400    -0.00009600
C      3.98832300    -2.41803000    -0.00007900
C      2.69870800    -3.02621700    -0.00002800
C      2.69437300    -4.46861100    -0.00000600
C      1.54091200    -5.17664600     0.00003700
C      0.27623600    -4.49766800     0.00003900
C     -0.87833200    -5.26873400     0.00005900
C     -2.19350600    -4.72949500     0.00003500
C     -3.34483900    -5.53550000     0.00005500
B     -4.67896600    -4.84773100     0.00001500
N     -5.98743200    -5.50058000     0.00002800
C     -7.14474600    -4.81901400    -0.00001000
C     -7.17307300    -3.41984800    -0.00006500
C     -5.99037200    -2.67348700    -0.00008400
C     -4.72681600    -3.30533800    -0.00004700
C     -3.50831400    -2.59985100    -0.00006400
C     -2.26928600    -3.26839600    -0.00002300
C     -1.06676400    -2.50256800    -0.00003800
C      0.22380200    -3.02828200     0.00000600
C      1.49749000    -2.26048900     0.00000200
C      1.65373900    -0.79997400     0.00002500
C      0.60052700     0.16446100     0.00012700
C      0.81837000     1.53189200     0.00013400
H      2.28919600     3.14124400     0.00005000
H      4.21110700     1.54681400    -0.00009200
H      5.12412600    -0.59880800    -0.00014100
H      4.86322800    -3.07284800    -0.00010800
H      3.66217900    -4.97614000    -0.00002100
H      1.54574100    -6.26937800     0.00005800
H     -0.76799000    -6.35710400     0.00008700
H     -3.18415600    -6.62078600     0.00009700
H     -6.06347900    -6.51566000     0.00006700
H     -8.07198800    -5.39776700     0.00000400
H     -8.14548400    -2.92474400    -0.00009400
H     -6.06207100    -1.57884300    -0.00012800
H     -3.50472000    -1.50281200    -0.00010700
H     -0.43508500    -0.13979100     0.00021900
H     -1.24135900    -1.43668600    -0.00009900
H     -0.04435700     2.20278200     0.00021500
