042
BNPAH_000389_PAH57   C24_H16_N01_B01 -1003.24390871     0.00000000     3.53295000  5297.32207383     8.44182007   229.71362480 22163.99555690    30.79838415     0.04908035     1.33554433   128.86043928    -5.06380000    -0.18609122  -116.77400302  -488.58242865    -2.14340000    -0.07876850   -49.42797861  -206.80666250     2.92040000     0.10732272    67.34602441   281.77576615
C      2.77417800    -0.11273900    -0.00000000
C      2.70331300    -1.49726600    -0.00000100
C      1.45587500    -2.16604800    -0.00000000
C      1.39506700    -3.60582900    -0.00000000
C      0.20296700    -4.26490500    -0.00000000
C     -1.04446400    -3.54618000     0.00000000
C     -2.27111400    -4.22120500     0.00000000
C     -3.49820500    -3.53918100     0.00000000
C     -4.74593300    -4.24121100     0.00000100
C     -5.93499800    -3.56718600     0.00000000
C     -5.99610500    -2.13243000     0.00000000
C     -7.26403600    -1.41545400    -0.00000000
C     -8.48885300    -2.11470000    -0.00000100
N     -9.66745100    -1.46485200    -0.00000100
C     -9.85003800    -0.11298100    -0.00000100
B     -8.63693500     0.76976300    -0.00000000
C     -7.30017900     0.01954300     0.00000000
C     -6.04748700     0.70113800     0.00000000
C     -4.84816700     0.03202800     0.00000100
C     -4.78368300    -1.39583100     0.00000000
C     -3.50649700    -2.10224100     0.00000000
C     -2.26793700    -1.43617900     0.00000000
C     -1.03733600    -2.10729900     0.00000000
C      0.24662000    -1.40465600    -0.00000000
C      0.35195200     0.00613500     0.00000000
C      1.58607300     0.64216300     0.00000000
H      3.74415600     0.38997600    -0.00000100
H      3.61811400    -2.09605700    -0.00000100
H      2.33615500    -4.16207100    -0.00000100
H      0.17133000    -5.35752400    -0.00000000
H     -2.27432000    -5.31497700     0.00000000
H     -4.73169200    -5.33415100     0.00000100
H     -6.85863800    -4.14722800     0.00000100
H     -8.56141600    -3.19984900    -0.00000100
H    -10.49484500    -2.05962500    -0.00000100
H    -10.90408700     0.17536900    -0.00000100
H     -8.70599400     1.97500600     0.00000000
H     -6.05626700     1.79411800     0.00000100
H     -3.92372300     0.61043400     0.00000100
H     -2.26247700    -0.34803100     0.00000000
H     -0.55106000     0.61840800     0.00000100
H      1.63195500     1.73380100     0.00000000
