042
BNPAH_000067_PAH73   C24_H16_N01_B01 -1003.18958886     0.00000000    13.74530000  5263.23584862     8.38750022   228.23550619 22021.37879063    30.60020842     0.04876454     1.32695062   128.03127203    -4.32000000    -0.15875707   -99.62156741  -416.81663805    -3.30190000    -0.12134259   -76.14362348  -318.58492064     1.01810000     0.03741449    23.47794393    98.23171741
C      8.14466700    -0.02648400     0.00000100
C      7.04119000    -0.84982500     0.00000100
B      5.64404700    -0.20918600     0.00000000
C      4.29182100    -0.91576300     0.00000000
C      3.10291800    -0.17671800    -0.00000000
C      1.81642700    -0.79098200    -0.00000000
C      0.62568700    -0.07460800    -0.00000000
C      0.65778900     1.37628700    -0.00000100
C      1.92752900     1.99548000    -0.00000100
C      3.13378900     1.28931800    -0.00000100
C      4.37689200     1.99631600    -0.00000100
C      5.60617900     1.34919700    -0.00000000
C      6.84643600     2.07769200    -0.00000000
C      8.04882500     1.41276200     0.00000000
C     -0.57337200     2.11306800    -0.00000000
C     -0.63226500     3.52872500    -0.00000000
C     -1.84310700     4.20520000    -0.00000000
N     -1.90049800     5.58902800     0.00000000
C     -3.05612300     6.30595700     0.00000000
C     -4.27307700     5.65277200     0.00000100
C     -4.29752800     4.24563000     0.00000100
C     -3.10509500     3.49989800     0.00000000
C     -3.04460800     2.08603000     0.00000000
C     -1.83814000     1.38786100    -0.00000000
C     -1.82114500    -0.05159400    -0.00000000
C     -0.64488400    -0.74317300    -0.00000000
H      9.15789600    -0.44856700     0.00000100
H      7.21775100    -1.93301800     0.00000100
H      4.17900100    -2.00832300     0.00000000
H      1.77109800    -1.88436400    -0.00000000
H      1.99542100     3.08650500    -0.00000100
H      4.32257000     3.09451000    -0.00000100
H      6.83600700     3.17522900    -0.00000100
H      8.97987100     1.98825000     0.00000000
H      0.29067900     4.11133800    -0.00000000
H     -1.01654000     6.09116600    -0.00000000
H     -2.95083200     7.39075000     0.00000000
H     -5.19404400     6.23565500     0.00000100
H     -5.25321600     3.71699100     0.00000100
H     -3.98271500     1.52551700     0.00000000
H     -2.77851200    -0.57803400    -0.00000000
H     -0.65111900    -1.83651100    -0.00000000
