042
BNPAH_000146_PAH73   C24_H16_N01_B01 -1003.19352064     0.00000000    10.10420000  5265.70307461     8.39143199   228.34249524 22031.70166417    30.61455276     0.04878740     1.32757265   128.09128875    -4.02940000    -0.14807772   -92.92017216  -388.77800032    -2.70140000    -0.09927462   -62.29576440  -260.64547825     1.32800000     0.04880310    30.62440776   128.13252207
C      8.10171300    -0.01847500    -0.00000100
C      6.93167800    -0.74743500    -0.00000100
C      5.66141000    -0.09930700    -0.00000000
C      4.44178500    -0.81517600    -0.00000000
C      3.19344300    -0.18814700     0.00000000
B      1.85671100    -0.95828800     0.00000000
C      0.57988800    -0.12842000     0.00000100
C      0.66723300     1.32901100     0.00000100
C      1.90938800     1.95840100     0.00000100
C      3.15955500     1.26434600     0.00000100
C      4.36543100     1.98794000     0.00000100
C      5.61703100     1.34485400     0.00000000
C      6.85107900     2.06687500     0.00000000
C      8.05860600     1.40474100    -0.00000000
C     -0.57383600     2.10568100     0.00000100
C     -0.62697700     3.49747600     0.00000100
C     -1.82409000     4.23893100     0.00000000
C     -1.87468600     5.65507600    -0.00000000
C     -3.07118000     6.34334200    -0.00000100
C     -4.27564400     5.59871100    -0.00000100
C     -4.23873300     4.22947700    -0.00000100
N     -3.03667900     3.53077800    -0.00000000
C     -3.02700600     2.16630700     0.00000000
C     -1.85152800     1.40184100     0.00000100
C     -1.88869700    -0.01020700     0.00000000
C     -0.69479300    -0.72663500     0.00000000
H      9.06803800    -0.52879600    -0.00000200
H      6.95996300    -1.84061200    -0.00000200
H      4.48147600    -1.90916600    -0.00000100
H      1.82339800    -2.16988500    -0.00000000
H      1.96801300     3.04990900     0.00000200
H      4.33630500     3.08256800     0.00000200
H      6.81895400     3.16007000     0.00000100
H      8.99332300     1.97145000    -0.00000000
H      0.29124200     4.08408700     0.00000100
H     -0.91945400     6.18220100     0.00000000
H     -3.09118400     7.43371700    -0.00000100
H     -5.24781100     6.09347600    -0.00000200
H     -5.13070700     3.60421800    -0.00000100
H     -4.01047300     1.69610800    -0.00000000
H     -2.85430200    -0.52107500     0.00000000
H     -0.74021300    -1.81998600     0.00000000
