042
BNPAH_000316_PAH68   C24_H16_N01_B01 -1003.21702466     0.00100000     4.18192000  5280.45207571     8.41493602   228.98207245 22093.41148477    30.70030277     0.04892405     1.33129112   128.45006679    -4.59110000    -0.16871981  -105.87328198  -442.97381180    -2.80020000    -0.10290545   -64.57414654  -270.17822914     1.79090000     0.06581436    41.29913543   172.79558266
C      2.09875500     2.06868900     0.00009800
C      3.16182700     1.19130300    -0.00007700
C      2.97056700    -0.21640100    -0.00008600
C      4.12731100    -1.04418500    -0.00020900
C      3.99003900    -2.40030000    -0.00017200
C      2.70422400    -3.01780700    -0.00006000
C      2.71189200    -4.45865300    -0.00001300
C      1.56156400    -5.17258700     0.00008000
C      0.29508100    -4.49954300     0.00008400
C     -0.85743000    -5.27633000     0.00012700
C     -2.17190900    -4.74204300     0.00007600
C     -3.32123900    -5.55461300     0.00011900
B     -4.69052100    -4.92022000     0.00003700
C     -6.06636200    -5.56956700     0.00006400
C     -7.20633900    -4.76332100    -0.00002800
C     -7.10673300    -3.36550700    -0.00014500
N     -5.92184100    -2.72842900    -0.00017600
C     -4.69524000    -3.36995000    -0.00009700
C     -3.51543100    -2.63104000    -0.00013600
C     -2.26007100    -3.28609100    -0.00004900
C     -1.06819200    -2.51349400    -0.00008200
C      0.22959300    -3.03375800     0.00001200
C      1.49698700    -2.25885500     0.00000400
C      1.64489500    -0.79625000     0.00005400
C      0.58706300     0.16265200     0.00027500
C      0.79760400     1.53166000     0.00029100
H      2.25954100     3.14909800     0.00011000
H      4.18963000     1.56406800    -0.00020000
H      5.11399200    -0.57451700    -0.00030500
H      4.86905000    -3.04949400    -0.00023400
H      3.68291100    -4.95966200    -0.00004700
H      1.57079000    -6.26526800     0.00012600
H     -0.74444800    -6.36432600     0.00018900
H     -3.14900000    -6.63794000     0.00021100
H     -6.22686000    -6.65436400     0.00015300
H     -8.21767200    -5.18053700    -0.00001300
H     -7.98949600    -2.72364100    -0.00021700
H     -5.93749900    -1.70840300    -0.00026300
H     -3.52932000    -1.53300000    -0.00023000
H     -0.44686200    -0.14732500     0.00047600
H     -1.24516700    -1.44800700    -0.00021600
H     -0.06874800     2.19796500     0.00046600
