036
BNPAH_000072_PAH20   C20_H14_N01_B01  -849.65425647     0.00000000     7.23620000  4469.43897638     7.12250438   193.81321615 18700.13267717    30.61259573     0.04878428     1.32748778   128.08310053    -4.71420000    -0.17324366  -108.71203544  -454.85115627    -2.67360000    -0.09825299   -61.65468117  -257.96318599     2.04060000     0.07499067    47.05735427   196.88797028
C      2.12225800     0.55361000    -0.00000700
C      2.32408700    -0.85136000    -0.00001900
C      1.29030200    -1.77753500    -0.00001800
B     -0.17962000    -1.30302000    -0.00000300
C     -0.30532600     0.23735700     0.00000500
C     -1.57707400     0.85110600     0.00001200
C     -2.75052400     0.12546500     0.00001100
C     -2.78992100    -1.29427200     0.00000500
C     -1.57252000    -2.04797300     0.00000300
N     -1.72376000    -3.47195900     0.00000500
C     -0.57568400    -4.23202500     0.00001600
C     -0.56742400    -5.60339400     0.00001600
C     -1.78714500    -6.30048800     0.00000700
C     -2.94698600    -5.55291200    -0.00000100
C     -2.94366000    -4.14012000    -0.00000000
C     -4.16859800    -3.37221900    -0.00000400
C     -5.43578800    -4.01209100    -0.00001000
C     -6.60842000    -3.28077000    -0.00001100
C     -6.54264800    -1.87421100    -0.00000600
C     -5.31667200    -1.23332000     0.00000000
C     -4.09204300    -1.95397400     0.00000100
C      0.84557200     1.07625700     0.00000400
H      2.99059500     1.21840200    -0.00000900
H      3.36116500    -1.20893300    -0.00002900
H      0.33171900    -3.64843500     0.00002600
H     -1.64707800     1.94644400     0.00001800
H     -3.68822200     0.67748400     0.00001500
H      1.67765700    -2.80452200    -0.00003100
H      0.39436200    -6.11758400     0.00002500
H     -1.82275200    -7.39085300     0.00000700
H     -3.90902000    -6.05925200    -0.00000600
H     -5.50356900    -5.09944700    -0.00001400
H     -7.57328800    -3.79184800    -0.00001600
H     -7.46146200    -1.28315600    -0.00000600
H     -5.30293900    -0.14550600     0.00000400
H      0.70826900     2.16504400     0.00001000
