038
BNPAH_000435_PAH66   C22_H14_N01_B01  -925.88124181     0.00000000     2.69132000  4840.38393931     7.71364281   209.89891206 20252.16640207    30.63534139     0.04882052     1.32847413   128.17826838    -4.81010000    -0.17676792  -110.92354199  -464.10409970    -2.49000000    -0.09150581   -57.42076455  -240.24847888     2.32010000     0.08526210    53.50277744   223.85562082
C      4.24011600    -2.84711000    -0.00000000
C      3.07259500    -3.65647700    -0.00000100
C      1.81538000    -3.09340800    -0.00000100
C      1.60035100    -1.67774700    -0.00000000
C      2.80471600    -0.87280100     0.00000000
C      4.09963900    -1.48243900    -0.00000000
C      2.69103300     0.51866200     0.00000000
C      1.44693700     1.15600200     0.00000000
C      1.41525400     2.58244300     0.00000000
C      0.21601000     3.24633600     0.00000000
C     -0.98285800     2.50055800     0.00000000
C     -1.02469100     1.10886200     0.00000000
C     -2.33788300     0.42762200    -0.00000000
C     -3.54333600     1.15156900    -0.00000100
C     -4.78343000     0.50442100    -0.00000100
C     -4.85488000    -0.88050600    -0.00000000
C     -3.65617000    -1.61905600     0.00000000
C     -2.37415000    -0.99811800     0.00000000
B     -1.07886900    -1.85110200     0.00000000
C     -1.36414000    -3.36371900     0.00000100
C     -2.65580800    -3.82124900     0.00000100
N     -3.73892600    -2.99918000     0.00000000
C      0.29571300    -1.06536100     0.00000000
C      0.22691900     0.36639400     0.00000000
H      5.23037700    -3.30864500    -0.00000000
H      3.17112800    -4.74513100    -0.00000100
H     -0.64134800    -4.17889100     0.00000100
H      4.97576300    -0.82829100     0.00000000
H      3.59846100     1.12966100     0.00000000
H      2.36445900     3.12426600     0.00000100
H      0.17393500     4.33780100     0.00000000
H     -1.91566600     3.06305200    -0.00000000
H     -3.54401000     2.24078600    -0.00000100
H     -5.70133200     1.09719800    -0.00000100
H     -5.81973300    -1.39570800    -0.00000000
H      0.96210800    -3.75687200    -0.00000100
H     -2.90770300    -4.88617100     0.00000100
H     -4.66530900    -3.41220900     0.00000000
