042
BNPAH_000184_PAH71   C24_H16_N01_B01 -1003.23510715     0.00000000     3.59140000  5291.79900670     8.43301851   229.47412195 22140.88704403    30.76627329     0.04902918     1.33415187   128.72608745    -4.81130000    -0.17681202  -110.95121465  -464.21988210    -2.31320000    -0.08500853   -53.34365966  -223.18987202     2.49810000     0.09180348    57.60755499   241.03001007
C      8.92026900    -1.65435600     0.00000300
C      7.74509900    -2.38351700     0.00000300
C      6.48226900    -1.73690700     0.00000100
C      5.26538600    -2.48838900     0.00000100
C      4.04640500    -1.86678100    -0.00000100
C      3.93072700    -0.43821500    -0.00000200
C      2.62540600     0.18898000    -0.00000300
B      1.28728300    -0.52995900    -0.00000300
C      0.02852400     0.32518600    -0.00000200
N      0.11926000     1.73016000    -0.00000200
C      1.34418600     2.31712500    -0.00000200
C      2.56277600     1.61859600    -0.00000300
C      3.77522200     2.38866500    -0.00000300
C      4.99462700     1.77114700    -0.00000300
C      5.12023800     0.34284200    -0.00000200
C      6.41807900    -0.30598800    -0.00000000
C      7.64459100     0.41098200     0.00000000
C      8.86498400    -0.24339500     0.00000200
C     -1.06734500     2.53552900    -0.00000000
C     -2.33919600     1.89533200     0.00000100
C     -3.50613300     2.69967700     0.00000200
C     -3.43503800     4.08220800     0.00000300
C     -2.17529600     4.70485200     0.00000300
C     -1.01181000     3.94406600     0.00000100
C     -2.42364700     0.46645500    -0.00000000
C     -1.26824200    -0.26196900    -0.00000200
H      9.88666100    -2.16417300     0.00000400
H      7.77189300    -3.47655400     0.00000400
H      5.32705400    -3.58000600     0.00000100
H      3.12933900    -2.45601300    -0.00000100
H      1.13830700    -1.72744500    -0.00000300
H      1.36608000     3.40109400    -0.00000300
H      3.71551800     3.48073300    -0.00000400
H      5.89342900     2.38884300    -0.00000300
H      7.63707200     1.50173700    -0.00000100
H      9.79056100     0.33750300     0.00000200
H     -4.47502800     2.19459500     0.00000300
H     -4.34688100     4.68326400     0.00000500
H     -2.09896200     5.79424200     0.00000300
H     -0.06127600     4.47305800     0.00000000
H     -3.40569300    -0.01012800     0.00000000
H     -1.29367500    -1.35308400    -0.00000200
