042
BNPAH_000022_PAH50   C24_H16_N01_B01 -1003.17097611     0.00100000    12.98334000  5251.55617084     8.36888746   227.72902743 21972.51101879    30.53230332     0.04865632     1.32400597   127.74715709    -4.33110000    -0.15916499   -99.87753950  -417.88762525    -3.11270000    -0.11438962   -71.78056780  -300.32989566     1.21840000     0.04477537    28.09697170   117.55772958
B     -3.04413100     0.30467200     0.00004800
C     -2.84058700     1.84325900     0.00014300
C     -1.57860000     2.38543500     0.00014200
C     -0.39846700     1.56727900     0.00005400
C      0.86170600     2.18247500     0.00005700
C      2.05903600     1.45122600    -0.00002200
C      1.95320100     0.00920100    -0.00011100
C      3.16869200    -0.71637200    -0.00020600
C      4.38552900    -0.09012900    -0.00018700
C      4.54822300     1.32683300    -0.00006900
C      5.83268400     2.02400400    -0.00002900
C      5.79776400     3.45408000    -0.00005600
C      6.96597300     4.26669100    -0.00010100
C      8.20263000     3.69904800    -0.00010600
C      8.33726400     2.27894900    -0.00003000
C      9.65784500     1.75948400     0.00000300
C      9.90710100     0.40304900     0.00012500
C      8.80543300    -0.46703900     0.00023300
C      7.50552500     0.01844800     0.00019400
C      7.18229600     1.40658500     0.00003600
C      4.54699400     4.12486200    -0.00004100
C      3.38181200     3.44196100    -0.00000900
N      3.34067200     2.05867900    -0.00002600
C      0.70745800    -0.61069200    -0.00011800
C     -0.51985400     0.10293100    -0.00003700
C     -1.77911600    -0.51578600    -0.00004200
H     -4.15326000    -0.18484500     0.00004800
H     -3.67819300     2.55291400     0.00021300
H     -1.42181100     3.47248100     0.00020800
H      0.84211900     3.27131800     0.00013000
H      3.13099800    -1.80835000    -0.00030000
H      6.74556100    -0.74712000     0.00031900
H      6.83970600     5.35137900    -0.00013400
H      9.10680700     4.31164700    -0.00014600
H     10.48388400     2.47491100    -0.00006100
H     10.92855100     0.01717000     0.00015500
H      8.95988000    -1.54839200     0.00035600
H      5.25556300    -0.71994700    -0.00028900
H      4.51869200     5.21514000    -0.00004800
H      2.42685300     3.94985600     0.00001000
H      0.67828100    -1.70387400    -0.00019100
H     -1.76614400    -1.61340900    -0.00011300
