042
BNPAH_000257_PAH57   C24_H16_N01_B01 -1003.23395305     0.00000000     8.66268000  5291.07480168     8.43186441   229.44271745 22137.85697023    30.76206280     0.04902247     1.33396929   128.70847076    -4.43850000    -0.16311187  -102.35424235  -428.25015000    -2.95050000    -0.10842888   -68.04014691  -284.67997467     1.48800000     0.05468299    34.31409544   143.57017533
C      2.82873800    -0.13884900     0.00000100
C      2.73537700    -1.52118300     0.00000100
C      1.47464300    -2.16625400     0.00000100
C      1.38642200    -3.60067400     0.00000100
C      0.17950700    -4.24433400     0.00000000
C     -1.02458000    -3.48257700    -0.00000000
N     -2.23100800    -4.10880000    -0.00000100
C     -3.45814400    -3.51007000    -0.00000100
C     -4.61410300    -4.32718400    -0.00000100
C     -5.87558900    -3.76379200    -0.00000100
B     -6.05473500    -2.23403800    -0.00000100
C     -7.41125100    -1.48569700    -0.00000000
C     -8.67793400    -2.11878300     0.00000100
C     -9.86551600    -1.39615300     0.00000200
C     -9.82687900     0.01315700     0.00000200
C     -8.60677100     0.67315700     0.00000000
C     -7.38687100    -0.05128000    -0.00000100
C     -6.12901700     0.65346400    -0.00000200
C     -4.90408000     0.03103900    -0.00000200
C     -4.77788100    -1.39708700    -0.00000200
C     -3.50355800    -2.05434200    -0.00000100
C     -2.25490700    -1.39945700    -0.00000100
C     -1.01442800    -2.05763200    -0.00000100
C      0.27889900    -1.38086300    -0.00000000
C      0.40604800     0.02721500    -0.00000000
C      1.65331300     0.63704000     0.00000100
H      3.80675800     0.34733900     0.00000200
H      3.63912800    -2.13610700     0.00000200
H      2.31324400    -4.17912800     0.00000100
H      0.12409800    -5.33611600     0.00000000
H     -2.22654900    -5.12779500    -0.00000100
H     -4.46219200    -5.41485200    -0.00000100
H     -6.71590000    -4.46919800    -0.00000100
H     -8.72493200    -3.21233400     0.00000100
H    -10.82804400    -1.91504400     0.00000300
H    -10.75898100     0.58500000     0.00000200
H     -8.57554100     1.76712800     0.00000000
H     -6.16721600     1.74739900    -0.00000200
H     -4.01733600     0.67613500    -0.00000300
H     -2.26187000    -0.30973800    -0.00000100
H     -0.48682000     0.65394800    -0.00000100
H      1.72027800     1.72734200     0.00000000
