042
BNPAH_000116_PAH53   C24_H16_N01_B01 -1003.17357154     0.00000000    12.33336000  5253.18482334     8.37148289   227.79965249 21979.32530085    30.54177223     0.04867141     1.32441658   127.78677501    -4.09670000    -0.15055095   -94.47214704  -395.27146322    -3.20920000    -0.11793593   -74.00591068  -309.64073029     0.88750000     0.03261502    20.46623636    85.63073293
C      2.18649500    -1.21500400    -0.00000000
C      1.05123100    -1.98246000     0.00000100
C     -0.26889700    -1.39989700     0.00000000
C     -1.41926200    -2.18985100     0.00000100
B     -2.80390200    -1.53745300     0.00000100
C     -4.14314100    -2.23204700     0.00000100
C     -5.33074800    -1.47571300     0.00000000
C     -6.60721200    -2.07792600     0.00000000
C     -7.80690100    -1.35792800    -0.00000000
C     -9.06425700    -2.00395300    -0.00000100
C    -10.23526600    -1.27957800    -0.00000100
C    -10.21318500     0.13638500    -0.00000100
C    -11.40950700     0.89689600    -0.00000100
C    -11.40091700     2.27466200     0.00000000
C    -10.15106100     2.93253800     0.00000100
C     -8.99596000     2.19166300     0.00000100
N     -8.99020700     0.81497100    -0.00000000
C     -7.75095800     0.09678400    -0.00000000
C     -6.51949100     0.72379100    -0.00000000
C     -5.29179900     0.00347500     0.00000000
C     -4.07278900     0.69499700    -0.00000000
C     -2.82997700     0.02591500     0.00000000
C     -1.60732200     0.72537200    -0.00000000
C     -0.36568700     0.06598500    -0.00000000
C      0.85293000     0.82169700    -0.00000100
C      2.08407200     0.21242000    -0.00000100
H      3.17328700    -1.68513600     0.00000000
H      1.12176800    -3.07407900     0.00000100
H     -1.26195200    -3.27682500     0.00000100
H     -4.27157100    -3.32255200     0.00000100
H     -6.66716200    -3.17001800     0.00000000
H     -9.09254800    -3.09601400    -0.00000100
H    -11.21093300    -1.76538700    -0.00000100
H    -12.34628400     0.33790600    -0.00000100
H    -12.33305700     2.84181700     0.00000000
H    -10.07545100     4.02020200     0.00000200
H     -8.02061900     2.66656300     0.00000100
H     -6.42659800     1.81013400    -0.00000000
H     -4.10805200     1.79326400    -0.00000000
H     -1.59686700     1.82370500    -0.00000100
H      0.78083000     1.91331000    -0.00000100
H      2.99474700     0.81739000    -0.00000100
