038
BNPAH_000042_PAH46   C22_H14_N01_B01  -925.85896319     0.00100000     9.97062000  4826.40389019     7.69136418   209.29267976 20193.67387655    30.54686006     0.04867952     1.32463721   127.80806249    -4.55600000    -0.16742991  -105.06385674  -439.58717661    -3.34790000    -0.12303306   -77.20440869  -323.02324596     1.20810000     0.04439686    27.85944805   116.56393066
C     -2.63373300    -0.48347100    -0.05040900
B     -2.68608600     1.04655200    -0.06357000
C     -1.33447400     1.73392300    -0.05640700
C     -0.13710500     0.99571900    -0.03889000
C     -0.16615600    -0.45140200    -0.02723800
C      1.04909900    -1.17156200    -0.00977100
C      2.29683800    -0.56661600    -0.00290400
C      2.40309400     0.84382800    -0.01347600
C      3.64863400     1.56661800    -0.00756700
C      4.92455300     0.91740600     0.00982500
C      6.09580200     1.63268800     0.01511000
C      6.10684500     3.06588200     0.00355500
C      7.29758100     3.82262600     0.00869900
C      7.25392500     5.21765900    -0.00308200
C      6.02894400     5.89071100    -0.02020000
C      4.81352500     5.17754600    -0.02593200
C      3.53637200     5.83275100    -0.04339400
C      2.36596100     5.11719600    -0.04867900
C      2.40435000     3.69363500    -0.03672900
N      1.26510900     2.95871200    -0.04156200
C      1.17812500     1.59978800    -0.03130600
C      3.64151500     2.99286200    -0.01926600
C      4.85239900     3.74721500    -0.01391400
C     -1.41809600    -1.13836000    -0.03346500
H     -3.53137800    -1.11459500    -0.05371900
H     -3.72467600     1.67127200    -0.07862000
H     -1.27469400     2.83464800    -0.06496900
H      0.99276600    -2.26412000    -0.00131600
H      3.19517700    -1.18314700     0.01069500
H      4.96673000    -0.17165900     0.01908400
H      7.05304500     1.10532900     0.02847400
H      1.39873800     5.62535900    -0.06199600
H     -1.36564300    -2.23495200    -0.02391800
H      0.36842600     3.44778300    -0.05405500
H      3.50676400     6.92467300    -0.05256500
H      8.25882100     3.30306700     0.02205200
H      8.18464400     5.78931300     0.00109900
H      6.00454100     6.98322500    -0.02933200
