042
BNPAH_000132_PAH74   C24_H16_N01_B01 -1003.22426708     0.00000000     3.20426000  5284.99676296     8.42217844   229.17914874 22112.42645622    30.72672537     0.04896615     1.33243691   128.56061895    -4.52700000    -0.16636418  -104.39510085  -436.78910196    -2.42550000    -0.08913548   -55.93335920  -234.02517491     2.10150000     0.07722870    48.46174165   202.76392705
C      8.15643700    -2.74141600     0.00000300
C      7.02312800    -3.52073300     0.00000100
C      5.72182500    -2.92880200    -0.00000000
C      4.54274800    -3.69803600    -0.00000100
C      3.26553500    -3.12023400    -0.00000200
B      1.95158200    -3.89333200    -0.00000300
C      0.66739300    -3.07936400    -0.00000200
N      0.71399600    -1.66222500    -0.00000200
C      1.91217400    -1.02887500    -0.00000200
C      3.16952400    -1.67604700    -0.00000200
C      4.34441600    -0.89128800    -0.00000100
C      5.61429000    -1.48332000     0.00000000
C      6.81974000    -0.70796600     0.00000200
C      8.05105500    -1.31794200     0.00000300
C     -0.50652700    -0.90631000    -0.00000200
C     -1.75396000    -1.57608000    -0.00000100
C     -1.78645700    -3.00226200    -0.00000000
C     -0.60482500    -3.69610600    -0.00000200
C     -2.97677000    -0.78856300     0.00000100
C     -4.26443700    -1.38727800     0.00000300
C     -5.41615900    -0.61886800     0.00000400
C     -5.33839500     0.79154700     0.00000300
C     -4.10139000     1.40698600     0.00000100
C     -2.90692900     0.63958100    -0.00000000
C     -1.62585700     1.26089300    -0.00000300
C     -0.47235600     0.51784800    -0.00000400
H      9.14480300    -3.20721300     0.00000400
H      7.09918700    -4.61136500     0.00000100
H      4.62782400    -4.78884000    -0.00000200
H      1.88676900    -5.09927700    -0.00000300
H      1.89535700     0.05428200    -0.00000200
H      4.26879200     0.20055800    -0.00000100
H      6.74075900     0.38254700     0.00000200
H      8.96114900    -0.71280400     0.00000400
H     -2.73504000    -3.53558100     0.00000100
H     -0.60356300    -4.78768800    -0.00000200
H     -4.36009300    -2.47298200     0.00000400
H     -6.39245400    -1.10912300     0.00000600
H     -6.25266500     1.38954900     0.00000400
H     -4.02309400     2.49728500     0.00000000
H     -1.56530500     2.35167200    -0.00000400
H      0.47120400     1.05716200    -0.00000600
