042
BNPAH_000520_PAH56   C24_H16_N01_B01 -1003.25330569     3.26500000     4.91749000  5303.21876806     8.45121705   229.96932967 22188.66732556    30.83266726     0.04913498     1.33703099   129.00387982    -4.74130000    -0.17423956  -109.33697629  -457.46590880    -2.47140000    -0.09082228   -56.99183836  -238.45385169     2.26990000     0.08341729    52.34513793   219.01205711
C      1.25306500     0.36748400     0.31003100
C      2.52517800     0.26002500    -0.21755100
C      3.16970100    -1.00001800    -0.34003400
C      4.53571000    -1.07369300    -0.74587500
C      5.19617900    -2.27306600    -0.71775000
C      4.51169900    -3.48855600    -0.41446900
C      5.25549300    -4.71760700    -0.33812600
C      4.64440300    -5.89911700    -0.04923600
C      3.20901800    -6.00515900     0.04232700
C      2.42158000    -4.78111800    -0.11988900
C      1.03723500    -4.89312900    -0.32930100
C      0.34615600    -6.12006300    -0.24503700
C     -1.04949800    -6.22057500    -0.47650100
C     -1.70403700    -7.43338900    -0.36995400
C     -1.04320200    -8.64388100    -0.02766900
C     -1.75966500    -9.86745700     0.08581000
C     -1.12653500   -11.04269200     0.42017500
C      0.27148900   -11.02038500     0.65720700
C      0.94630600    -9.83298700     0.54392300
N      0.33010600    -8.65202300     0.20509200
B      1.12512400    -7.38504200     0.08897100
C      2.61581500    -7.26839600     0.19427000
C      3.11435500    -3.49103600    -0.17329400
C      2.46395200    -2.20376400     0.01364300
C      1.18837400    -2.03981700     0.62754800
C      0.59875600    -0.79538800     0.77197700
H      0.77440600     1.34486700     0.40813500
H      3.07464600     1.15446000    -0.52394200
H      5.05581600    -0.15220900    -1.01988400
H      6.26370000    -2.32466200    -0.94859500
H      6.33888400    -4.67187900    -0.47967100
H      5.23219200    -6.81453300     0.06094100
H      0.47687300    -4.00118800    -0.61829000
H     -1.63329600    -5.33012500    -0.73910500
H     -2.77941400    -7.50123600    -0.54422400
H     -2.83430900    -9.84027600    -0.10180200
H     -1.68876800   -11.97471500     0.50458100
H      0.81793300   -11.92396300     0.92942900
H      2.01767500    -9.75443000     0.72133200
H      3.32393300    -8.09956000     0.30337800
H      0.68138200    -2.91036900     1.04099900
H     -0.37308100    -0.71418100     1.26537800
