042
BNPAH_000496_PAH73   C24_H16_N01_B01 -1003.21761021     0.00000000     4.84323000  5280.81951151     8.41552157   228.99800598 22094.94883616    30.70243902     0.04892745     1.33138376   128.45900486    -5.08030000    -0.18669758  -117.15450207  -490.17443664    -2.73150000    -0.10038077   -62.98988689  -263.54968677     2.34880000     0.08631681    54.16461517   226.62474987
C      8.05474800    -0.18469900    -0.00000100
C      6.85348800    -0.85181200    -0.00000100
C      5.61364100    -0.13522200    -0.00000000
C      4.37206300    -0.78778100    -0.00000000
C      3.16138800    -0.07239600     0.00000000
C      1.89412800    -0.71370300     0.00000000
C      0.70503400     0.00140300     0.00000100
C      0.73311200     1.45452000     0.00000100
C      1.96550500     2.09150900     0.00000100
C      3.19504300     1.37624200     0.00000100
C      4.44149500     2.02868200     0.00000100
C      5.64896800     1.31458500     0.00000000
C      6.92309300     1.96856500     0.00000000
C      8.08980300     1.24263800    -0.00000100
C     -0.54310700     2.17621000     0.00000100
C     -0.66432600     3.55988100     0.00000100
C     -1.89834800     4.24033900     0.00000000
C     -1.97644500     5.66153900     0.00000000
C     -3.16590000     6.35559700    -0.00000100
B     -4.48506900     5.58287500    -0.00000100
C     -4.32315600     4.09395300    -0.00000100
N     -3.08579500     3.48760900    -0.00000000
C     -2.98091700     2.10969500    -0.00000000
C     -1.77859500     1.43354500     0.00000000
C     -1.74980400    -0.01411100     0.00000000
C     -0.56954500    -0.68514400     0.00000000
H      8.99300600    -0.74464700    -0.00000200
H      6.82535800    -1.94462200    -0.00000100
H      4.34398700    -1.88108400    -0.00000000
H      1.85792900    -1.80672300     0.00000000
H      2.02036900     3.18220400     0.00000100
H      4.46995600     3.12203000     0.00000100
H      6.94951000     3.06138700     0.00000100
H      9.05454100     1.75561500    -0.00000100
H      0.22145400     4.19628600     0.00000100
H     -1.00833300     6.17393800     0.00000100
H     -3.09748000     7.44952000    -0.00000100
H     -5.57823000     6.09448100    -0.00000200
H     -5.13153900     3.35703000    -0.00000100
H     -3.93529300     1.58309400    -0.00000000
H     -2.69912700    -0.55496700     0.00000000
H     -0.55894300    -1.77808200     0.00000000
