038
BNPAH_000254_PAH65   C22_H14_N01_B01  -925.86550809     0.00000000     5.39582000  4830.51087859     7.69790908   209.47077563 20210.85751602    30.57285366     0.04872094     1.32576440   127.91681971    -4.83220000    -0.17758008  -111.43318010  -466.23642555    -2.73940000    -0.10067109   -63.17206522  -264.31192090     2.09280000     0.07690898    48.26111488   201.92450466
N     -2.80226200     2.65568100     0.00000000
C     -3.92579800     1.86989200     0.00000100
C     -1.50893200     2.19911700     0.00000000
C     -3.80553700     0.51746500     0.00000000
C     -2.49661400    -0.08243300     0.00000000
C     -1.33184500     0.75525400    -0.00000000
C     -2.35689400    -1.48535700     0.00000000
C     -0.02110200     0.15558200    -0.00000000
C     -1.08997600    -2.05587800    -0.00000000
C      0.05178600    -1.24724700    -0.00000000
C     -0.42702900     3.12048300    -0.00000000
B      0.97118000     2.53366700    -0.00000000
C      1.16625000     1.01920700    -0.00000000
C     -0.55355200     4.53655500    -0.00000000
C      0.57525500     5.34969800    -0.00000000
C      1.90084700     4.83729700    -0.00000000
C      2.17389400     3.46663000    -0.00000000
C      3.50856600     2.87411700    -0.00000000
C      2.46938100     0.56623600    -0.00000000
C      3.62353300     1.43885400    -0.00000000
C      4.70358300     3.62843100     0.00000000
C      4.91283900     0.85073600     0.00000000
C      5.95651700     3.02416600     0.00000100
C      6.06680300     1.62202200     0.00000000
H      4.98660800    -0.24093300    -0.00000000
H      4.64321500     4.71906300     0.00000000
H      7.04985500     1.14525000     0.00000100
H      6.85756700     3.64322100     0.00000100
H     -2.92017300     3.66470200     0.00000000
H     -4.87931900     2.39863700     0.00000100
H     -4.69538200    -0.11254700     0.00000100
H      2.70685500    -0.50571400    -0.00000000
H     -1.52945700     5.04474200    -0.00000000
H      0.44145900     6.43478200    -0.00000100
H      2.70911900     5.57879500    -0.00000000
H     -3.25300500    -2.11000400     0.00000000
H     -0.98089400    -3.14327300    -0.00000000
H      1.03303300    -1.72486800    -0.00000100
