042
BNPAH_000571_PAH53   C24_H16_N01_B01 -1003.22521801     0.00000000     6.30572000  5285.59347667     8.42312936   229.20502470 22114.92310639    30.73019463     0.04897168     1.33258735   128.57513433    -4.21300000    -0.15482490   -97.15408877  -406.49270743    -3.26180000    -0.11986894   -75.21889551  -314.71585880     0.95120000     0.03495596    21.93519327    91.77684864
C      2.11706500    -1.42287300     0.00000200
C      0.90165400    -2.06760600     0.00000100
C     -0.32933100    -1.33161100    -0.00000000
C     -1.55966800    -2.02137900    -0.00000100
C     -2.79927000    -1.35560300    -0.00000100
C     -4.02984800    -2.04146800    -0.00000100
C     -5.26622600    -1.37356100    -0.00000100
C     -6.52241300    -2.02948200    -0.00000100
C     -7.72371900    -1.32769500    -0.00000000
C     -8.98660500    -2.02503400     0.00000000
C    -10.16687100    -1.35021400     0.00000100
C    -10.20900200     0.09404100     0.00000100
C    -11.44633700     0.77639700     0.00000100
C    -11.50108900     2.16376900     0.00000100
C    -10.30674700     2.90502200     0.00000000
C     -9.07950600     2.25266000    -0.00000000
C     -8.99307000     0.84226600    -0.00000000
C     -7.71392200     0.12680200    -0.00000100
C     -6.48508200     0.78399900    -0.00000100
C     -5.27238500     0.06859700    -0.00000100
N     -4.06948900     0.69864400    -0.00000100
C     -2.83559800     0.10870100    -0.00000100
B     -1.55406800     0.93287000    -0.00000100
C     -0.27464000     0.12409200    -0.00000000
C      1.01695800     0.73621800     0.00000000
C      2.18290200    -0.00015900     0.00000100
H      3.04266100    -2.00549600     0.00000200
H      0.85918900    -3.16079900     0.00000100
H     -1.55736300    -3.11464500    -0.00000000
H     -4.02759400    -3.13582200    -0.00000100
H     -6.54160900    -3.12235000    -0.00000100
H     -8.97025900    -3.11769600     0.00000000
H    -11.11547500    -1.89285100     0.00000100
H    -12.36850300     0.18942900     0.00000200
H    -12.46568800     2.67645900     0.00000200
H    -10.33954700     3.99689300     0.00000000
H     -8.16947500     2.85470600    -0.00000100
H     -6.43814800     1.87450100    -0.00000100
H     -4.06727400     1.71837300    -0.00000200
H     -1.60115200     2.14603300    -0.00000100
H      1.06592500     1.82909600     0.00000000
H      3.15643900     0.49679500     0.00000200
