042
BNPAH_000176_PAH59   C24_H16_N01_B01 -1003.22423467     0.00000000     9.65675000  5284.97642190     8.42214602   229.17826667 22112.34134923    30.72660710     0.04896597     1.33243178   128.56012411    -4.38830000    -0.16126705  -101.19660284  -423.40658629    -2.43020000    -0.08930820   -56.04174378  -234.47865597     1.95810000     0.07195885    45.15485906   188.92793032
N      2.07144400     3.50075700    -0.00000200
C      2.10356000     2.14337700    -0.00000100
C      0.95656200     1.36568000    -0.00000000
C     -0.33146900     2.05842900     0.00000100
C     -0.28345200     3.49272500     0.00000000
C      0.89010500     4.19007700    -0.00000100
C     -1.55531000     1.33342300     0.00000200
B     -1.52006600    -0.20262900     0.00000200
C     -2.86168400    -0.91190400     0.00000200
C     -4.05722500    -0.19742300     0.00000100
C     -4.02503800     1.26518700     0.00000200
C     -5.26490100     2.00178400     0.00000200
C     -6.47605100     1.38320800     0.00000100
C     -6.57231200    -0.05732700    -0.00000000
C     -7.83589000    -0.69110600    -0.00000100
C     -7.94760000    -2.07514900    -0.00000200
C     -6.78240600    -2.86048300    -0.00000200
C     -5.53110400    -2.25315100    -0.00000000
C     -5.38319200    -0.84838400     0.00000000
C     -2.82116100     1.97066400     0.00000200
C     -0.12239300    -0.89607600     0.00000100
C      0.02231100    -2.30433500     0.00000200
C      1.26485700    -2.92428400     0.00000100
C      2.42891200    -2.13616300    -0.00000000
C      2.32663100    -0.75174900    -0.00000000
C      1.06506900    -0.10625100     0.00000000
H      2.94864500     4.01123400    -0.00000300
H      3.10312600     1.71343500    -0.00000200
H     -1.21278200     4.06029800     0.00000100
H      0.95733900     5.27774400    -0.00000200
H     -2.93766000    -2.00412400     0.00000100
H     -5.20617600     3.09449900     0.00000200
H     -7.40132500     1.96554500     0.00000100
H     -8.73372100    -0.06647700    -0.00000200
H     -8.93246400    -2.54893500    -0.00000300
H     -6.85553400    -3.95091000    -0.00000200
H     -4.64214200    -2.88528400    -0.00000000
H     -2.90973700     3.06350800     0.00000200
H     -0.88014900    -2.92073200     0.00000200
H      1.34125500    -4.01474700     0.00000100
H      3.41505600    -2.60723100    -0.00000100
H      3.25537400    -0.17670900    -0.00000100
