018
BNPAH_001686_PAH01   C02_H08_N04_B04  -399.07742821     0.00000000     8.63243000  1704.23722288     2.71587489    73.90272000  7130.52854053    25.06231210     0.03993934     1.08680471   104.86071383    -3.62860000    -0.13334859   -83.67750452  -350.10667890    -2.63360000    -0.09678302   -60.73225924  -254.10377268     0.99500000     0.03656558    22.94524527    96.00290622
B      0.00000000     1.43021900     1.60498600
N      0.00000000     2.53069600     0.65072800
C     -0.00000000     2.57971100    -0.73192500
B     -0.00000000     1.37953400    -1.65768000
N      0.00000000    -1.36532800    -1.37983800
N      0.00000000    -2.53520000    -0.67705000
N     -0.00000000    -2.55650700     0.67173600
C     -0.00000000    -1.46656500     1.49443300
B      0.00000000    -0.07662500     0.91265600
B      0.00000000    -0.06605200    -0.79650200
H      0.00000000     1.80558200     2.76192600
H      0.00000000     3.46175300     1.06967500
H     -0.00000000     3.61648900    -1.09733600
H     -0.00000000     1.57274100    -2.85983000
H      0.00000000    -1.57384300    -2.38058100
H      0.00000000    -3.42560300    -1.15905900
H     -0.00000000    -3.50688900     1.03411500
H     -0.00000000    -1.80411400     2.53954700
