036
BNPAH_000360_PAH19   C20_H14_N01_B01  -849.64294440     0.00000000    13.25158000  4462.34054649     7.11119231   193.50539910 18670.43284651    30.56397635     0.04870680     1.32537945   127.87967705    -4.12530000    -0.15160198   -95.13167871  -398.03094374    -3.33200000    -0.12244874   -76.83774598  -321.48912916     0.79330000     0.02915324    18.29393274    76.54181458
C      2.57760600    -0.04291900    -0.00000100
C      2.53484800    -1.42398000    -0.00000000
N      1.34495300    -2.07358500    -0.00000000
C      0.10783300    -1.43465700     0.00000000
C     -1.07808700    -2.14376600     0.00000000
C     -2.34002300    -1.48394600     0.00000100
C     -2.32761200    -0.02922900     0.00000100
C     -3.58306500     0.67257000     0.00000000
C     -4.76198300    -0.00601700     0.00000000
C     -4.82537000    -1.45201100     0.00000000
C     -3.58460100    -2.18343800     0.00000000
C     -3.65436000    -3.61808200     0.00000000
C     -4.85617100    -4.26692900     0.00000000
C     -6.10336300    -3.55393300     0.00000000
C     -7.31517500    -4.25965700    -0.00000000
C     -8.57586000    -3.61566300    -0.00000000
C     -8.70684700    -2.23360300    -0.00000100
B     -7.46118400    -1.36251800    -0.00000000
C     -6.09013800    -2.10533900    -0.00000000
C     -1.12433200     0.66971800     0.00000000
C      0.13057200     0.01348000     0.00000000
C      1.36692400     0.67731900    -0.00000000
H      3.54188500     0.46461500    -0.00000100
H      3.42623300    -2.05197800    -0.00000100
H      1.34358200    -3.09001500    -0.00000000
H     -1.03554600    -3.23403600     0.00000000
H     -3.56737900     1.76537000     0.00000000
H     -5.70870200     0.53271600     0.00000000
H     -2.73615200    -4.20806700     0.00000100
H     -4.88272400    -5.36088400     0.00000000
H     -7.27770400    -5.35362100    -0.00000000
H     -9.46429700    -4.26024400    -0.00000100
H     -9.72416400    -1.82512400    -0.00000100
H     -7.54670200    -0.15456100    -0.00000000
H     -1.14228100     1.76248300     0.00000000
H      1.38210700     1.76954000    -0.00000000
