042
BNPAH_000252_PAH32   C24_H16_N01_B01 -1003.17755394     0.00200000    11.30503000  5255.68382215     8.37546530   227.90801933 21989.78111188    30.55630129     0.04869457     1.32504662   127.84756460    -4.49670000    -0.16525068  -103.69636625  -433.86559637    -3.02130000    -0.11103073   -69.67283371  -291.51113624     1.47540000     0.05421995    34.02353254   142.35446013
C      1.34730200    -2.33852900     0.00027300
N      0.06264400    -2.74629000     0.00002400
C     -1.03786600    -1.91375900    -0.00005600
C     -2.29527800    -2.49841700    -0.00023200
C     -3.39526900    -1.66155300    -0.00024100
C     -3.35163200    -0.25237300    -0.00013600
C     -4.65285300     0.44755000    -0.00011500
C     -5.85069200    -0.35321500    -0.00017800
C     -7.10116400     0.18677400    -0.00012600
C     -7.28176800     1.59467000     0.00001500
C     -8.59576900     2.12978200     0.00009400
C     -8.81169200     3.49305000     0.00025900
C     -7.69153900     4.34720600     0.00035600
C     -6.40423600     3.83503800     0.00027400
C     -6.12002700     2.43965700     0.00008500
C     -4.76335000     1.86713100    -0.00001400
B     -3.41033000     2.66397300    -0.00008700
C     -2.05597800     1.86579100    -0.00013400
C     -0.86634300     2.66894800    -0.00030900
C     -0.84069700     4.04697800    -0.00038000
C     -2.02982700     4.81775000    -0.00029700
C     -3.25913900     4.20693600    -0.00016700
C     -2.05766500     0.42024300    -0.00005800
C     -0.86221700    -0.46965600     0.00007800
C      0.49746000    -0.08901600     0.00039700
C      1.58354200    -0.98414500     0.00048500
H      2.11640100    -3.11088300     0.00031800
H     -0.13625100    -3.74391400    -0.00009900
H     -2.41182600    -3.58476100    -0.00032000
H     -4.35502900    -2.16550100    -0.00033900
H     -5.80879900    -1.43849100    -0.00026800
H     -7.98064700    -0.46309100    -0.00017800
H     -9.43711600     1.43084400     0.00002700
H     -9.82536200     3.90123200     0.00032400
H     -7.83159100     5.43133900     0.00050100
H     -4.08280100     4.91800900    -0.00016300
H      0.77753600     0.95083100     0.00062700
H      0.12996600     4.55206500    -0.00052100
H     -1.94375400     5.91093800    -0.00036900
H     -5.59274600     4.54597300     0.00037400
H      0.12706100     2.24604000    -0.00044900
H      2.60513100    -0.60517400     0.00072700
