042
BNPAH_000458_PAH50   C24_H16_N01_B01 -1003.19533802     0.00000000     8.80318000  5266.84349914     8.39324937   228.39194872 22036.47320040    30.62118313     0.04879796     1.32786017   128.11903022    -4.20040000    -0.15436185   -96.86352587  -405.27699224    -3.17640000    -0.11673055   -73.24952471  -306.47601137     1.02400000     0.03763131    23.61400116    98.80098087
C     -2.93633200     0.17336000    -0.00000200
C     -2.92001800     1.59517500    -0.00001400
C     -1.72402400     2.27950600    -0.00001600
C     -0.48039000     1.57875400    -0.00000600
C      0.75855300     2.25633700    -0.00000800
C      1.98552100     1.58536500     0.00000100
C      1.92834600     0.15357500     0.00001300
N      3.14150000    -0.51841900     0.00002300
C      4.33677600     0.08395000     0.00002000
C      4.50952600     1.46729900     0.00000500
C      5.85928300     2.06875500     0.00000000
C      5.84021200     3.52183900     0.00000400
C      7.05464400     4.27433000     0.00001100
C      8.25204000     3.63173000     0.00001300
C      8.33564400     2.20156800     0.00000400
C      9.63986400     1.67362700     0.00000300
C      9.91520100     0.29836700    -0.00001000
C      8.88028400    -0.62799600    -0.00002500
B      7.44394200    -0.16508000    -0.00002600
C      7.12896800     1.36714100    -0.00000600
C      4.63358800     4.24451800     0.00000100
C      3.38122000     3.64706400    -0.00000300
C      3.28700000     2.25535200     0.00000000
C      0.73135300    -0.54932700     0.00001500
C     -0.50123300     0.13737200     0.00000500
C     -1.75590600    -0.53851600     0.00000700
H     -3.89271400    -0.35460800    -0.00000100
H     -3.86440500     2.14416300    -0.00002100
H     -1.71092000     3.37234800    -0.00002400
H      0.73776700     3.34663900    -0.00001700
H      3.12175200    -1.53500300     0.00003400
H      6.63950800    -1.07108100    -0.00004600
H      6.99165900     5.36534400     0.00001500
H      9.18560300     4.20142100     0.00001900
H     10.46980400     2.38644800     0.00001200
H     10.96589100    -0.01798800    -0.00001000
H      9.14801700    -1.69126600    -0.00003800
H      5.20216700    -0.57650100     0.00002900
H      4.70036800     5.33600900     0.00000200
H      2.48918000     4.27277300    -0.00000600
H      0.74225800    -1.64288300     0.00002400
H     -1.76692600    -1.63144700     0.00001600
