038
BNPAH_000523_PAH47   C22_H14_N01_B01  -925.85489472     0.00000000     6.94978000  4823.85089084     7.68729572   209.18197123 20182.99212727    30.53070184     0.04865377     1.32393653   127.74045650    -4.66290000    -0.17135842  -107.52902933  -449.90145870    -2.64590000    -0.09723503   -61.01590399  -255.29054227     2.01700000     0.07412338    46.51312534   194.61091642
C      2.17264300     1.21580800    -0.00000000
C      1.09334800     2.11181200    -0.00000100
C     -0.21326000     1.62771900    -0.00000200
C     -0.53375900     0.24750300    -0.00000000
C      0.59163400    -0.64997300     0.00000100
C      0.42075700    -2.08806600     0.00000100
C     -0.79655800    -2.70145300     0.00000100
C     -2.01681700    -1.94038600    -0.00000000
C     -3.23538400    -2.61693400    -0.00000000
C     -4.47804400    -1.95687300    -0.00000100
C     -4.55901800    -0.51120800    -0.00000000
C     -3.37142600     0.30315900    -0.00000000
C     -3.58480400     1.71363800     0.00000100
C     -4.82544700     2.30804700     0.00000100
C     -6.00900800     1.52269400     0.00000100
C     -5.84921900     0.09464800    -0.00000000
N     -7.01113900    -0.69198700    -0.00000000
C     -6.90920900    -2.07774000    -0.00000100
C     -5.69010300    -2.68990000    -0.00000100
C     -8.25893400    -0.11618500    -0.00000000
C     -8.42026800     1.25570700     0.00000100
C     -7.30174900     2.08604000     0.00000100
B     -1.97798200    -0.38859100    -0.00000000
C      1.91536600    -0.14824500     0.00000100
H      3.20141600     1.58534900     0.00000000
H      1.27352900     3.19009600    -0.00000200
H     -2.72120400     2.37436300     0.00000100
H      1.33173500    -2.69470200     0.00000200
H     -0.84809000    -3.79701400     0.00000100
H     -3.25364500    -3.71486900    -0.00000000
H     -1.00896300     2.37102400    -0.00000300
H     -4.92429800     3.39584600     0.00000100
H     -7.85844500    -2.61066500    -0.00000100
H     -5.65866100    -3.78152500    -0.00000100
H     -9.09172300    -0.81775900    -0.00000000
H     -9.43232000     1.66282600     0.00000100
H     -7.41086700     3.17198000     0.00000100
H      2.74552700    -0.86091400     0.00000200
