018
BNPAH_002090_PAH01   C02_H08_N04_B04  -399.32465160     0.00000000     3.35091000  1859.37226395     2.96309831    80.63001204  7779.61355237    27.34370976     0.04357498     1.18573547   114.40608164    -5.54350000    -0.20371987  -127.83614790  -534.86644283    -2.06700000    -0.07596085   -47.66615274  -199.43518307     3.47650000     0.12775902    80.16999516   335.43125977
B     -0.00000000     1.42992800     1.68645500
C      0.00000000     2.58921500     0.68244600
C      0.00000000     2.43575600    -0.69042900
N     -0.00000000     1.26115300    -1.41503600
N     -0.00000000    -1.28062700    -1.50491500
B      0.00000000    -2.52471700    -0.78553500
N      0.00000000    -2.52271900     0.63654200
N     -0.00000000    -1.38156100     1.42855300
B     -0.00000000    -0.07687300     0.90022600
B     -0.00000000    -0.04234900    -0.78316900
H     -0.00000000     1.67215500     2.87837100
H      0.00000000     3.64220700     0.99188300
H      0.00000000     3.32912200    -1.32918000
H      0.00000000     1.38898200    -2.42428000
H     -0.00000000    -1.32850800    -2.52327600
H      0.00000000    -3.59614000    -1.33420900
H      0.00000000    -3.38924600     1.16326700
H      0.00000000    -1.60577800     2.42228600
