042
BNPAH_000179_PAH71   C24_H16_N01_B01 -1003.22088624     0.00000000     9.96141000  5282.87525368     8.41879760   229.08715139 22103.55006140    30.71439101     0.04894650     1.33190204   128.50901199    -4.09470000    -0.15047745   -94.42602595  -395.07849255    -2.99310000    -0.10999440   -69.02252625  -288.79024985     1.10160000     0.04048305    25.40349969   106.28824270
C      8.89181300    -1.77149600    -0.00000200
C      7.68683100    -2.45127400    -0.00000100
C      6.47792800    -1.72495500    -0.00000000
N      5.26832000    -2.38814000     0.00000100
C      4.07794900    -1.77000100     0.00000100
C      3.95586900    -0.37009400     0.00000100
C      2.65075500     0.23919800     0.00000200
B      1.32529000    -0.50416500     0.00000200
C      0.05441700     0.33832200     0.00000100
C      0.12854600     1.77590100     0.00000100
C      1.39301500     2.40071000     0.00000200
C      2.60560600     1.68953900     0.00000200
C      3.83268900     2.41302400     0.00000200
C      5.07333700     1.80393000     0.00000200
C      5.18194600     0.39138900     0.00000100
C      6.45193700    -0.30036200    -0.00000000
C      7.71406300     0.35437300    -0.00000100
C      8.90019000    -0.35808500    -0.00000200
C     -1.10715100     2.56367400     0.00000000
C     -2.36818800     1.88571200    -0.00000100
C     -3.56765300     2.64274800    -0.00000200
C     -3.54441800     4.02750900    -0.00000200
C     -2.30658300     4.70103600    -0.00000100
C     -1.12065200     3.98039500     0.00000000
C     -2.40247000     0.45149500    -0.00000100
C     -1.24061200    -0.27468900     0.00000000
H      9.83173900    -2.32686900    -0.00000300
H      7.65901900    -3.54436300    -0.00000100
H      5.28613300    -3.40521400     0.00000100
H      3.19075900    -2.40355400     0.00000200
H      1.24259300    -1.71919700     0.00000200
H      1.46259000     3.48984800     0.00000200
H      3.78606400     3.50667100     0.00000200
H      5.97020900     2.42421400     0.00000100
H      7.74773100     1.44393500    -0.00000100
H      9.85233600     0.17654800    -0.00000300
H     -4.52149200     2.10753200    -0.00000300
H     -4.47844100     4.59522300    -0.00000300
H     -2.27807000     5.79368500    -0.00000100
H     -0.17776900     4.52926300     0.00000100
H     -3.37682600    -0.04553700    -0.00000100
H     -1.28632800    -1.36788900     0.00000000
