042
BNPAH_000113_PAH69   C24_H16_N01_B01 -1003.19201981     0.00000000    15.82811000  5264.76128982     8.38993116   228.30165558 22027.76123661    30.60907727     0.04877867     1.32733521   128.06837930    -3.92880000    -0.14438074   -90.60028103  -379.07157583    -3.29110000    -0.12094570   -75.89456956  -317.54287905     0.63770000     0.02343504    14.70571147    61.52869678
C     -2.57500100    -0.49650500    -0.00000000
C     -2.59501900     0.87685100     0.00000000
C     -1.38668700     1.65945100     0.00000000
C     -1.40284900     3.06124700     0.00000100
B     -0.10417200     3.84129900     0.00000100
C      0.03463700     5.37718600     0.00000100
C      1.27805600     5.95215400     0.00000000
C      2.49681600     5.17748800    -0.00000000
C      3.72702500     5.83912900    -0.00000100
C      4.96226900     5.16083500    -0.00000100
C      6.19112700     5.86195200    -0.00000100
C      7.41333700     5.21090200    -0.00000100
C      7.43880700     3.80047300    -0.00000000
N      8.63999400     3.13347800     0.00000000
C      8.77476200     1.78016500     0.00000100
C      7.63682900     0.99809600     0.00000100
C      6.37591000     1.61408700     0.00000100
C      6.23184800     3.01693300     0.00000000
C      4.96060100     3.71475200    -0.00000000
C      3.72501800     3.05710100     0.00000000
C      2.48199000     3.71874000    -0.00000000
C      1.21280400     3.01767600     0.00000000
C      1.11662100     1.61978700    -0.00000000
C     -0.11812100     0.93512300    -0.00000000
C     -0.14762600    -0.49455700    -0.00000100
C     -1.33121000    -1.19691700    -0.00000100
H     -3.51160400    -1.06084700    -0.00000000
H     -3.54803200     1.41400000     0.00000100
H     -2.39383100     3.53469100     0.00000100
H     -0.82976800     6.05381600     0.00000100
H      1.40757100     7.04212200     0.00000000
H      3.73511000     6.93338300    -0.00000100
H      6.16788700     6.95488600    -0.00000100
H      8.35098800     5.77188400    -0.00000100
H      9.48229300     3.70409300    -0.00000000
H      9.79186500     1.39012300     0.00000100
H      7.73013400    -0.08796600     0.00000200
H      5.48556800     0.98513800     0.00000100
H      3.71072300     1.96686300     0.00000000
H      2.00961800     0.98121000    -0.00000100
H      0.80718900    -1.03021400    -0.00000200
H     -1.32387900    -2.29009600    -0.00000200
