036
BNPAH_000080_PAH16   C20_H14_N01_B01  -849.64710521     0.00000000    13.66357000  4464.95149567     7.11535312   193.61862057 18681.35705788    30.58185956     0.04873530     1.32615494   127.95450040    -4.03790000    -0.14839009   -93.11618682  -389.59812565    -3.08760000    -0.11346721   -71.20174804  -297.90811381     0.95030000     0.03492288    21.91443878    91.69001184
C      5.18568900     1.39297700    -0.00000100
C      5.06861900     0.00750300    -0.00000100
C      3.79631800    -0.61608800    -0.00000000
B      2.53177200     0.25964500     0.00000000
C      2.74961500     1.77271400     0.00000100
C      4.05032500     2.25391200    -0.00000000
C      1.18067700    -0.49926700     0.00000100
C      1.19256500    -1.95760600     0.00000000
C      2.43508800    -2.67369700     0.00000000
C      3.66085600    -2.03829400    -0.00000000
C     -0.02764200    -2.65075300     0.00000000
C     -1.26655400    -1.98541000     0.00000000
C     -2.48842300    -2.70428700    -0.00000000
C     -3.72220700    -2.07590400    -0.00000000
C     -3.80467700    -0.66395000    -0.00000000
C     -5.05489200     0.01878500    -0.00000100
C     -5.11353000     1.39078500    -0.00000000
N     -3.95076000     2.10110600     0.00000000
C     -2.72621900     1.51265700     0.00000000
C     -2.58516700     0.12238700     0.00000000
C     -1.29412800    -0.53509300     0.00000000
C     -0.06643800     0.14268900     0.00000100
H      6.18260900     1.84493800    -0.00000100
H      5.98142300    -0.60309700    -0.00000100
H      1.94753200     2.52472600     0.00000100
H      4.24526300     3.33432100    -0.00000000
H      2.39048300    -3.76705200     0.00000000
H      4.56485600    -2.66256400    -0.00000000
H     -0.02497300    -3.74540700     0.00000000
H     -2.44350800    -3.79705900    -0.00000000
H     -4.64434200    -2.66083500    -0.00000100
H     -5.98393200    -0.55311000    -0.00000100
H     -6.03924300     1.96494500    -0.00000100
H     -3.99549400     3.11640600     0.00000000
H     -1.87608100     2.19231100     0.00000100
H     -0.05547900     1.23668700     0.00000100
