036
BNPAH_000015_PAH13   C20_H14_N01_B01  -849.66969725     3.77200000     7.83372000  4479.12821495     7.13794516   194.23338130 18740.67245135    30.67896038     0.04889004     1.33036563   128.36077023    -4.40710000    -0.16195794  -101.63014114  -425.22051055    -2.77390000    -0.10193895   -63.96765413  -267.64066488     1.63320000     0.06001899    37.66248701   157.57984566
B     -0.03493200    -0.73270400     0.68976000
C      0.00740500     0.82506300     0.71600500
C      0.10389300     3.15960100    -0.21379000
C     -0.05707500    -3.10950600    -0.28908400
C      0.08258300    -0.64304700     3.24711300
C     -0.13291000     0.72930900     3.23664700
C      0.14993300    -1.40362200     2.05838400
C     -0.15401400     1.43156000     2.01448200
C      0.31721600     4.05735400    -1.30010500
C     -0.27371200    -4.03549200    -1.34288400
C      0.28032200     1.73363600    -0.36917400
C     -0.29362500    -1.70667900    -0.50605800
C      0.32322800    -3.61087500     1.00971100
C     -0.22954100     3.64886800     1.05895500
C      0.36998700    -2.81967400     2.12721800
N     -0.30155400     2.81023600     2.08933600
C      0.76337600     3.58208700    -2.51234500
C     -0.78157600    -3.62801700    -2.56676000
C      0.80467800     1.30530000    -1.62485000
C     -0.86596300    -1.34888600    -1.75438600
C      1.03362600     2.19533000    -2.65565900
C     -1.10976800    -2.27287900    -2.76447700
H     -0.06159800    -5.09397800    -1.16374900
H      0.14761100     5.12620000    -1.14420800
H      0.17343200    -1.14488900     4.21881900
H     -0.24259800     1.28692800     4.17216500
H      0.50586400    -4.68620300     1.09951000
H     -0.39418400     4.70798100     1.26346700
H      0.57357900    -3.28402900     3.10050100
H     -0.47059700     3.19514000     3.01748600
H      0.94017400     4.26461400    -3.34609900
H     -0.95313200    -4.35777100    -3.36274400
H      1.04757800     0.25142800    -1.75215900
H     -1.15110600    -0.30778000    -1.92725000
H      1.44289300     1.82528300    -3.59903500
H     -1.55949300    -1.94988700    -3.70744000
