042
BNPAH_000279_PAH41   C24_H16_N01_B01 -1003.19244427     0.00000000    14.37842000  5265.02764478     8.39035563   228.31320583 22028.87566576    30.61062584     0.04878114     1.32740236   128.07485851    -4.03460000    -0.14826882   -93.04008701  -389.27972405    -3.29260000    -0.12100082   -75.92916038  -317.68760705     0.74200000     0.02726800    17.11092662    71.59211700
C      2.82758500     0.30482100     0.00000100
C      2.74208600    -1.08066000     0.00000000
C      1.48088300    -1.70317200    -0.00000000
N      1.40169600    -3.09341700    -0.00000000
C      0.24002900    -3.77018000    -0.00000100
C     -0.99173700    -3.11193900    -0.00000100
C     -2.19729300    -3.84494800    -0.00000100
C     -3.44728400    -3.20739000    -0.00000100
C     -4.66170800    -3.92446900    -0.00000000
C     -5.91724400    -3.30158000    -0.00000000
C     -5.92480700    -1.83761400    -0.00000100
C     -7.17471600    -1.15823300    -0.00000100
C     -8.35273900    -1.86904000    -0.00000000
C     -8.38281200    -3.29877900    -0.00000000
C     -9.64721400    -3.93958800     0.00000000
C     -9.77513000    -5.33615200     0.00000100
C     -8.65562700    -6.17100400     0.00000100
B     -7.25039100    -5.57868500     0.00000100
C     -7.15601800    -4.04919100     0.00000000
C     -4.71592800    -1.11462400    -0.00000100
C     -3.46994700    -1.74776500    -0.00000100
C     -2.24420200    -1.02389700    -0.00000000
C     -1.01037400    -1.65139300    -0.00000000
C      0.27269800    -0.95318100     0.00000000
C      0.40450900     0.45499500     0.00000100
C      1.64871100     1.07298700     0.00000100
H      3.80506700     0.79088300     0.00000100
H      3.64640500    -1.69564200     0.00000000
H      2.27387300    -3.61468000    -0.00000100
H      0.31178500    -4.85902500    -0.00000100
H     -2.15563700    -4.93750700    -0.00000100
H     -4.62676700    -5.01487900    -0.00000000
H     -7.18238600    -0.06492600    -0.00000100
H     -9.30586600    -1.33043900    -0.00000000
H    -10.54403900    -3.31218700     0.00000000
H    -10.78860700    -5.75647800     0.00000100
H     -8.84590700    -7.25170400     0.00000100
H     -6.27282900    -6.29923400     0.00000100
H     -4.75937600    -0.02137000    -0.00000100
H     -2.30641300     0.06626600    -0.00000000
H     -0.49485500     1.07184100     0.00000100
H      1.71022500     2.16317000     0.00000100
