034
BNPAH_000063_PAH31   C20_H12_N01_B01  -848.48334134     0.00000000     7.42106000  4361.33640192     6.95023196   189.12544488 18247.83150563    30.28705835     0.04826550     1.31337115   126.72105214    -4.65620000    -0.17111220  -107.37452365  -449.25500697    -2.66140000    -0.09780465   -61.37334248  -256.78606493     1.99480000     0.07330755    46.00118117   192.46894203
C     -1.83607400    -4.10402600    -0.00000000
C     -3.09900000    -3.51143100    -0.00000000
B     -3.20017900    -1.99794700     0.00000000
C     -4.46745600    -1.12484200     0.00000000
C     -4.34866100     0.24266200     0.00000000
C     -3.08024900     0.91985300     0.00000000
C     -3.03552200     2.33351800     0.00000000
C     -1.84004200     3.02196300     0.00000000
C     -0.60697000     2.32655100     0.00000000
C      0.63291400     3.02320400    -0.00000000
C      1.80563900     2.32979700    -0.00000000
C      1.82292200     0.90433700     0.00000000
C      3.04446000     0.22072600    -0.00000000
C      3.07495500    -1.16673100     0.00000000
C      1.87427500    -1.85991800     0.00000000
C      0.62369800    -1.21655500     0.00000000
C     -0.62316100    -1.95364000     0.00000000
C     -0.63863500    -3.36476600     0.00000000
C     -1.86564100    -1.24248200     0.00000000
C     -1.84355000     0.17633600     0.00000000
C     -0.61480000     0.90024900     0.00000000
N      0.60860700     0.19401300     0.00000000
H     -1.73605800    -5.19641900    -0.00000000
H     -3.96470500    -4.18554000    -0.00000000
H     -5.48392500    -1.53829900    -0.00000000
H     -5.23242400     0.89284900    -0.00000000
H     -3.98025800     2.88356800    -0.00000000
H     -1.81990100     4.11393000    -0.00000000
H      0.62755300     4.11542900    -0.00000000
H      2.77279700     2.83301300    -0.00000000
H      3.95640900     0.81776100    -0.00000000
H      4.02395200    -1.70597600    -0.00000000
H      1.87820600    -2.94633100     0.00000000
H      0.29480400    -3.92915800     0.00000000
