042
BNPAH_000639_PAH50   C24_H16_N01_B01 -1003.17443758     0.00000000    16.44057000  5253.72827290     8.37234893   227.82321869 21981.59909381    30.54493182     0.04867645     1.32455360   127.79999473    -3.86380000    -0.14199203   -89.10134541  -372.80002919    -3.28070000    -0.12056350   -75.65473986  -316.53943159     0.58310000     0.02142853    13.44660555    56.26059760
C     -3.08408500     0.36338400    -0.00002200
C     -2.88381900     1.75663000    -0.00005500
C     -1.61486100     2.33813800    -0.00005400
C     -0.42546900     1.54885800    -0.00002000
C      0.83180400     2.17867600    -0.00002100
C      2.04622700     1.45779000     0.00001000
C      1.95631100     0.01767700     0.00004400
C      3.17047400    -0.71205400     0.00008100
C      4.40210000    -0.10735000     0.00007400
C      4.57498500     1.32263400     0.00003000
C      5.84951300     2.00726200     0.00001400
C      5.82221000     3.45863500     0.00002200
C      6.98342300     4.22205800     0.00004000
N      8.19331800     3.64412200     0.00004300
C      8.35977800     2.26732900     0.00001200
C      9.68200900     1.79062000    -0.00000100
C      9.94108000     0.42756000    -0.00005100
C      8.85257100    -0.44974900    -0.00009300
C      7.54388400     0.02810000    -0.00007600
C      7.20734500     1.40907400    -0.00001300
C      4.59591700     4.18438400     0.00001500
C      3.40643100     3.52428600     0.00000200
C      3.34328600     2.09784100     0.00001100
C      0.69806400    -0.60803800     0.00004600
C     -0.51354200     0.09583400     0.00001500
B     -1.89549800    -0.58072500     0.00001600
H     -4.12699500     0.02299000    -0.00002600
H     -3.74716300     2.43419300    -0.00008200
H     -1.51592400     3.42824100    -0.00008000
H      0.83415800     3.27033200    -0.00004800
H      3.11911100    -1.80454200     0.00011700
H      6.77095500    -0.72430500    -0.00012300
H      6.95499800     5.31202000     0.00005300
H      9.02860100     4.22202900     0.00005700
H     10.50102600     2.51559000     0.00002400
H     10.96779500     0.05718600    -0.00006300
H      9.01687800    -1.52918800    -0.00014200
H      5.25017700    -0.77257700     0.00011600
H      4.63083300     5.27638000     0.00001700
H      2.48397300     4.10124800    -0.00000700
H      0.66833600    -1.70264500     0.00007400
H     -1.99564700    -1.78992200     0.00004500
