036
BNPAH_000305_PAH20   C20_H14_N01_B01  -849.68459271     0.00200000     3.21571000  4488.47525734     7.15284062   194.63870741 18779.78047671    30.74298121     0.04899206     1.33314183   128.62863338    -5.06760000    -0.18623087  -116.86163311  -488.94907292    -2.25150000    -0.08274110   -51.92082385  -217.23672698     2.81610000     0.10348977    64.94080926   271.71234593
C      2.09548400     0.51325300    -0.00013300
C      2.21097200    -0.88805100    -0.00042200
C      1.08796600    -1.70161700    -0.00040200
C     -0.25700800    -1.20723800    -0.00006600
C     -0.33311400     0.23376500     0.00012900
C     -1.59967900     0.87152400     0.00029200
C     -2.74689300     0.13480300     0.00022800
C     -2.75822700    -1.29268300     0.00007400
C     -1.50539500    -1.99815200     0.00002200
C     -1.60271100    -3.45888600     0.00007600
N     -0.49380100    -4.26256300     0.00030300
C     -0.46515100    -5.61313800     0.00034700
C     -1.63931600    -6.36379000     0.00016700
C     -2.87311300    -5.72021700    -0.00001300
B     -2.93859500    -4.20451400    -0.00003300
C     -4.22391600    -3.35686900    -0.00010500
C     -5.51319600    -3.93609200    -0.00020200
C     -6.66655200    -3.16460800    -0.00021200
C     -6.54316400    -1.76573300    -0.00011700
C     -5.28892000    -1.17003400    -0.00001700
C     -4.09338300    -1.94009400    -0.00001000
C      0.82740600     1.05206200     0.00012100
H      2.98300400     1.14943900    -0.00015100
H      3.19797100    -1.35681600    -0.00068800
H      0.41481300    -3.82081400     0.00051600
H     -1.64110200     1.96340700     0.00042500
H     -3.69045700     0.67336400     0.00031200
H      1.35381100    -2.75422400    -0.00075000
H      0.52943700    -6.06053500     0.00053800
H     -1.54188800    -7.45365100     0.00020700
H     -3.76239500    -6.36119200    -0.00010500
H     -5.59955500    -5.02601400    -0.00026500
H     -7.65392400    -3.63343700    -0.00028700
H     -7.43569500    -1.13471900    -0.00012200
H     -5.26318200    -0.08159900     0.00004700
H      0.68330500     2.13565400     0.00029900
