042
BNPAH_000331_PAH74   C24_H16_N01_B01 -1003.20498735     0.00000000    11.59823000  5272.89854768     8.40289871   228.65452048 22061.80752349    30.65638691     0.04885406     1.32938675   128.26632283    -4.29560000    -0.15786039   -99.05889004  -414.46239593    -3.37550000    -0.12404734   -77.84087981  -325.68624114     0.92010000     0.03381305    21.21801023    88.77615479
C      8.10378400    -3.15407700    -0.00000200
C      6.85843000    -3.73533200    -0.00000100
C      5.65833600    -2.95222100    -0.00000000
C      4.41181200    -3.59490000     0.00000000
C      3.22416400    -2.86529900     0.00000100
N      1.99848700    -3.47316300     0.00000100
C      0.79655200    -2.83694200     0.00000100
C      0.77674000    -1.40202300     0.00000100
C      2.00914200    -0.73718900     0.00000200
C      3.25409100    -1.41041700     0.00000100
C      4.49814200    -0.77243500     0.00000100
C      5.73295200    -1.47269900     0.00000000
C      6.98059100    -0.82508500    -0.00000100
B      8.26420300    -1.60596900    -0.00000200
C     -0.52021200    -0.73168300     0.00000100
C     -1.71482000    -1.49965700     0.00000100
C     -1.61620100    -2.93014100     0.00000100
C     -0.40882600    -3.58192100     0.00000100
C     -3.00525200    -0.83478800    -0.00000000
C     -4.24063100    -1.53609700    -0.00000100
C     -5.45093200    -0.86416700    -0.00000200
C     -5.48921200     0.54793800    -0.00000200
C     -4.30635900     1.26215600    -0.00000100
C     -3.05231200     0.59661500    -0.00000000
C     -1.82832200     1.32991000     0.00000100
C     -0.61421100     0.69270200     0.00000100
H      8.96192200    -3.83903000    -0.00000300
H      6.73283800    -4.82573700    -0.00000100
H      4.37646400    -4.68908400     0.00000000
H      1.98714400    -4.49147600     0.00000100
H      2.03576800     0.35361600     0.00000200
H      4.52211600     0.32067900     0.00000100
H      6.93913400     0.27169600    -0.00000000
H      9.36092300    -1.09027500    -0.00000200
H     -2.52588200    -3.52981700     0.00000000
H     -0.36767400    -4.67423400     0.00000100
H     -4.25115900    -2.62658800    -0.00000100
H     -6.38397900    -1.43255000    -0.00000300
H     -6.44937500     1.06877700    -0.00000300
H     -4.31832200     2.35512600    -0.00000100
H     -1.87188000     2.42185700     0.00000100
H      0.29523200     1.29391200     0.00000200
