042
BNPAH_000254_PAH38   C24_H16_N01_B01 -1003.19485640     0.00000000    13.01974000  5266.54128048     8.39276776   228.37884328 22035.20871753    30.61942605     0.04879516     1.32778397   128.11167859    -4.35780000    -0.16014620  -100.49325613  -420.46378364    -3.61400000    -0.13281205   -83.34082052  -348.69799304     0.74380000     0.02733415    17.15243561    71.76579060
C      7.92350500     0.18908800     0.00000100
C      6.69761400    -0.45668600     0.00000100
C      5.51018700     0.30315300    -0.00000000
N      4.27767600    -0.30028700    -0.00000100
C      3.08135800     0.35530300    -0.00000100
C      1.87123600    -0.34358600    -0.00000100
C      0.63668400     0.31551400    -0.00000100
C      0.59552800     1.77554900    -0.00000100
C      1.83769500     2.44922400    -0.00000100
C      3.07879000     1.79858100    -0.00000100
C      4.33519200     2.45046800    -0.00000100
C      5.54780800     1.73845800    -0.00000000
C      6.83443300     2.36059100     0.00000000
C      7.98908100     1.60605100     0.00000100
C     -0.66912700     2.46214600    -0.00000100
C     -0.71124600     3.89926900    -0.00000000
C     -1.86853600     4.64500700     0.00000000
B     -3.21732300     3.93109200     0.00000100
C     -3.12811800     2.40586000     0.00000100
C     -1.90801200     1.72268700     0.00000000
C     -1.85517700     0.24807000     0.00000000
C     -3.03677800    -0.53072300     0.00000100
C     -3.00873000    -1.91775600     0.00000100
C     -1.77977900    -2.59842400     0.00000000
C     -0.60580800    -1.86409000    -0.00000000
C     -0.60979000    -0.44592600    -0.00000100
H      8.84390800    -0.39818600     0.00000200
H      6.64154100    -1.54857900     0.00000100
H      4.25264500    -1.31794100    -0.00000100
H      1.91240700    -1.43304900    -0.00000100
H      1.85729200     3.53761700    -0.00000100
H      4.36289800     3.54283600    -0.00000100
H      6.88302900     3.45176600     0.00000000
H      8.96340200     2.09906300     0.00000200
H      0.24742600     4.42644400    -0.00000100
H     -1.74935200     5.73546200     0.00000000
H     -4.28211100     4.51018800     0.00000200
H     -4.03968500     1.80114200     0.00000100
H     -4.00286300    -0.02853000     0.00000100
H     -3.94704900    -2.47799100     0.00000100
H     -1.74670200    -3.69012200     0.00000000
H      0.33869300    -2.40875400    -0.00000100
