042
BNPAH_000242_PAH68   C24_H16_N01_B01 -1003.18970348     0.00100000     6.92294000  5263.30777317     8.38761484   228.23862514 22021.67972294    30.60062659     0.04876520     1.32696875   128.03302165    -4.33480000    -0.15930096   -99.96286352  -418.24462098    -2.63660000    -0.09689326   -60.80144089  -254.39322868     1.69820000     0.06240770    39.16142263   163.85139230
C      2.01180200     2.05757300    -0.00007100
C      3.08967400     1.19609600     0.00005300
C      2.92340800    -0.21294800     0.00006000
C      4.10286300    -1.01443400     0.00014700
C      4.00236000    -2.36968900     0.00012200
C      2.73034800    -3.02593700     0.00004200
C      2.77966100    -4.45194500     0.00001100
C      1.63016400    -5.18894400    -0.00005600
C      0.35448900    -4.56294200    -0.00006000
B     -0.86612200    -5.47389600    -0.00009800
C     -2.23562600    -4.79482400    -0.00005300
C     -3.46541100    -5.44277700    -0.00007300
C     -4.69956500    -4.76894000    -0.00001600
C     -5.96364400    -5.41160500    -0.00003800
C     -7.14602700    -4.70990700     0.00001900
C     -7.07722200    -3.28525500     0.00010300
C     -5.87579700    -2.64467400     0.00012700
N     -4.66466300    -3.35035000     0.00007000
C     -3.48664000    -2.68464400     0.00009500
C     -2.23950400    -3.33383200     0.00003500
C     -1.05846500    -2.57288900     0.00005800
C      0.25814400    -3.10941700    -0.00000900
C      1.49617000    -2.29607500    -0.00000300
C      1.61176100    -0.82299800    -0.00004000
C      0.54043000     0.12032300    -0.00019800
C      0.72423600     1.49513400    -0.00020900
H      2.15368800     3.14065100    -0.00007900
H      4.11116600     1.58611800     0.00014100
H      5.07649300    -0.51777800     0.00021500
H      4.89748200    -2.99649600     0.00016700
H      3.76200200    -4.93112600     0.00003600
H      1.66909500    -6.28128900    -0.00008800
H     -0.75696100    -6.67995600    -0.00015000
H     -3.50004100    -6.53532700    -0.00013500
H     -5.95360100    -6.50313800    -0.00010300
H     -8.10950000    -5.21994300     0.00000100
H     -7.98504700    -2.67959000     0.00015000
H     -5.77047400    -1.56032100     0.00019000
H     -3.57139000    -1.59615500     0.00016100
H     -0.48933600    -0.20095300    -0.00034400
H     -1.22710500    -1.50774900     0.00015900
H     -0.15635800     2.14285800    -0.00033400
