036
BNPAH_000382_PAH20   C20_H14_N01_B01  -849.60215611     0.00200000    12.40618000  4436.74550054     7.07040401   192.39549287 18563.34317426    30.38866781     0.04842742     1.31777735   127.14618612    -4.29680000    -0.15790449   -99.08656270  -414.57817833    -2.98130000    -0.10956076   -68.75041179  -287.65172292     1.31550000     0.04834373    30.33615091   126.92645541
C      2.08680600     0.50322600     0.00014800
C      2.13913500    -0.90495800     0.00040100
C      0.98706200    -1.64681800     0.00035400
N     -0.29687000    -1.12602800     0.00004100
C     -0.35065300     0.28134800    -0.00011700
C     -1.59421200     0.92417700    -0.00026700
C     -2.73647300     0.17911400    -0.00021600
C     -2.73749200    -1.23789600    -0.00008400
C     -1.48428100    -1.94977300    -0.00004500
C     -1.50643900    -3.41624200    -0.00009700
C     -0.39720200    -4.33407700    -0.00030300
C     -0.51161800    -5.70905900    -0.00031300
C     -1.78336900    -6.30437100    -0.00012700
C     -2.88398800    -5.48456200     0.00001900
C     -2.82319800    -4.05497100     0.00001200
C     -4.06748100    -3.33015000     0.00007900
C     -5.33074600    -3.99733600     0.00018000
C     -6.55078700    -3.34716900     0.00020100
B     -6.60625300    -1.82511800     0.00010900
C     -5.25367700    -1.16013700     0.00000300
C     -4.04673500    -1.88838700    -0.00000700
C      0.83366900     1.06188100    -0.00009000
H      2.99067600     1.11345800     0.00017900
H      3.08689500    -1.44491900     0.00065300
H      0.63825400    -4.03412200    -0.00051800
H     -1.61516000     2.01393700    -0.00037700
H     -3.69436300     0.69046700    -0.00028800
H      1.06093200    -2.71180600     0.00061400
H      0.39635100    -6.31589000    -0.00047500
H     -1.90014700    -7.39041800    -0.00012800
H     -3.86292900    -5.95412300     0.00012400
H     -5.34024800    -5.08852100     0.00024100
H     -7.43748300    -3.99428600     0.00028200
H     -7.64109300    -1.19159600     0.00012100
H     -5.20339600    -0.06814100    -0.00006000
H      0.69035200     2.14325700    -0.00024800
