034
BNPAH_000033_PAH30   C20_H12_N01_B01  -848.52412185     0.00000000     5.39303000  4386.92656357     6.99101248   190.23513931 18354.90074198    30.46476780     0.04854870     1.32107736   127.46458848    -5.00840000    -0.18405531  -115.49644866  -483.23714121    -2.48700000    -0.09139556   -57.35158291  -239.95902288     2.52140000     0.09265974    58.14486576   243.27811833
C      5.51180700    -0.27525100    -0.00000000
B      4.24782600    -1.13769400     0.00000000
C      2.89757200    -0.37672100     0.00000000
C      1.66417100    -1.03174100     0.00000000
C      0.42120100    -0.35002900     0.00000000
C      0.42960200     1.07140400     0.00000000
C     -0.79990100     1.79705000     0.00000000
C     -2.05149500     1.10711300     0.00000000
C     -3.24688900     1.86029000    -0.00000000
C     -3.19981200     3.25150400     0.00000000
C     -1.97932200     3.94285300     0.00000000
C     -0.77961500     3.22192500     0.00000000
N      0.45144300     3.85273400     0.00000000
C      1.66622600     3.20386100     0.00000000
C      2.88111800     3.90731400    -0.00000000
C      4.08303400     3.20020400    -0.00000000
C      4.13412600     1.79339700     0.00000000
C      5.39724300     1.09429100    -0.00000000
C      2.90196700     1.06539400     0.00000000
C      1.67207300     1.77656700     0.00000000
C     -2.02701800    -0.32997500    -0.00000000
C     -0.84600300    -1.02411500     0.00000000
H      6.52555300    -0.69128500    -0.00000000
H      4.26497000    -2.34760500     0.00000000
H      1.65321000    -2.12633200     0.00000000
H     -4.20758200     1.34080700    -0.00000000
H     -4.13044400     3.82406900    -0.00000000
H     -1.96132800     5.03555800     0.00000000
H      0.45946900     4.86809200    -0.00000000
H      2.87970900     5.00019500    -0.00000000
H      5.02327100     3.75898900    -0.00000000
H      6.29178100     1.73115000    -0.00000000
H     -2.98037600    -0.86402700    -0.00000000
H     -0.85182400    -2.11720500    -0.00000000
