036
BNPAH_000239_PAH24   C20_H14_N01_B01  -849.66754556     0.00000000     7.14238000  4477.77800827     7.13579347   194.17483079 18735.02318660    30.66971239     0.04887530     1.32996459   128.32207664    -4.77240000    -0.17538247  -110.05415933  -460.46660265    -2.85180000    -0.10480172   -65.76407082  -275.15687231     1.92060000     0.07058075    44.29008851   185.30973033
C     -1.64634600     1.71294800     0.00000100
C     -0.47441700     2.52128500     0.00000200
C      0.77397700     1.94068500     0.00000300
C      0.92153100     0.51876700     0.00000100
C      2.18950600    -0.09548000     0.00000100
C      2.37859600    -1.48607800    -0.00000000
C      1.16020500    -2.26155600    -0.00000100
N      1.27526600    -3.64658100    -0.00000200
C      2.45468800    -4.27451700    -0.00000000
C      3.66921700    -3.58465000     0.00000100
C      3.68975100    -2.13347400    -0.00000000
B      5.08883900    -1.46524300    -0.00000100
C      5.48389200     0.02506300    -0.00000300
C      6.81925500     0.38539200    -0.00000300
C      7.87439400    -0.57045400    -0.00000100
C      7.62400500    -1.93203600     0.00000100
C      6.29861100    -2.43995900     0.00000100
C      6.10588900    -3.85280700     0.00000300
C      4.85006000    -4.40319600     0.00000200
C     -0.10835200    -1.69326400    -0.00000200
C     -0.26858800    -0.29445800    -0.00000100
C     -1.54620100     0.33891800    -0.00000100
H     -2.62941800     2.18975500     0.00000000
H     -0.57205000     3.60941300     0.00000400
H      1.67444900     2.55986100     0.00000400
H      4.79221500     0.87387800    -0.00000600
H      0.41857300    -4.19351100    -0.00000300
H      2.41696800    -5.36618400    -0.00000000
H      3.06453300     0.54647200     0.00000300
H      7.10341100     1.44478200    -0.00000500
H      8.90848700    -0.21269000    -0.00000100
H      8.47047700    -2.63045400     0.00000200
H      6.97793300    -4.51860800     0.00000400
H      4.71858900    -5.48917400     0.00000300
H     -0.99175700    -2.33936900    -0.00000300
H     -2.44503800    -0.28345800    -0.00000200
