038
BNPAH_000114_PAH28   C22_H14_N01_B01  -925.85673831     0.00000000     4.46785000  4825.00775991     7.68913930   209.23213782 20187.83246746    30.53802380     0.04866544     1.32425404   127.77109158    -5.00450000    -0.18391198  -115.40651253  -482.86084841    -2.41280000    -0.08866877   -55.64049024  -232.79981118     2.59170000     0.09524322    59.76602228   250.06103723
C     -5.90445000    -2.16518900     0.00000000
C     -5.82026300    -0.73296100    -0.00000000
C     -4.62636700    -0.04307600    -0.00000000
C     -3.37287000    -0.73869500    -0.00000000
B     -3.41352800    -2.27221100     0.00000000
C     -4.78176900    -2.96014800     0.00000000
C     -2.04595800    -2.91333700     0.00000000
C     -0.88158000    -2.16909700    -0.00000000
C      0.39498200    -2.83858200    -0.00000000
C      1.57454200    -2.18196400    -0.00000000
C      1.58198000    -0.74450500    -0.00000000
C      2.77964600    -0.04176700    -0.00000000
C      2.83498100     1.36980800    -0.00000000
C      4.07439900     2.07008800     0.00000000
C      4.10701200     3.44920700     0.00000000
C      2.89519400     4.17994300     0.00000000
C      1.67793400     3.52256900     0.00000000
C      1.60596400     2.10334200    -0.00000000
C      0.35075100     1.38361300    -0.00000000
C     -0.89985000     2.07007600    -0.00000000
C     -2.06543200     1.37192800    -0.00000000
C     -2.12943200    -0.05397900    -0.00000000
N     -0.89629200    -0.74482400    -0.00000000
C      0.32881700    -0.03102100    -0.00000000
H     -6.90980600    -2.60378700     0.00000000
H     -6.75335800    -0.16174500    -0.00000000
H     -4.68344900     1.04965500    -0.00000000
H     -4.91988600    -4.04804400     0.00000000
H     -1.87683700    -3.99584000     0.00000000
H      0.35293600    -3.92854500     0.00000000
H      2.52734200    -2.71477300    -0.00000000
H      3.71305800    -0.61000500    -0.00000000
H      5.00174500     1.49161600     0.00000000
H      5.06272800     3.97840500     0.00000000
H      2.91954000     5.27205100     0.00000000
H      0.76451400     4.11790600     0.00000000
H     -0.92797100     3.15870700    -0.00000000
H     -3.01122600     1.90800200    -0.00000000
