034
BNPAH_000019_PAH31   C20_H12_N01_B01  -848.48386614     0.00000000     7.25219000  4361.66571862     6.95075676   189.13972540 18249.20936671    30.28934527     0.04826914     1.31347032   126.73062061    -5.03270000    -0.18494832  -116.05681998  -485.58173480    -2.72060000    -0.09998021   -62.73852692  -262.49799664     2.31210000     0.08496811    53.31829306   223.08373816
B     -1.94078700    -4.18889300    -0.00000000
C     -3.18710300    -3.34533900    -0.00000000
C     -3.11820400    -1.94562200    -0.00000000
C     -4.31494800    -1.16786400    -0.00000000
C     -4.27827800     0.19440700     0.00000000
C     -3.04203600     0.88875500     0.00000000
C     -3.03167300     2.30133200     0.00000000
C     -1.86265500     3.01392200     0.00000000
C     -0.63516500     2.30991600     0.00000000
C      0.60656400     3.02160000    -0.00000000
C      1.80083300     2.36282900    -0.00000000
C      1.84361200     0.93336700    -0.00000000
C      3.07307800     0.24444400    -0.00000000
C      3.09286700    -1.14364200     0.00000000
C      1.89844400    -1.87281900     0.00000000
C      0.64804500    -1.23836800     0.00000000
C     -0.61839300    -1.97812900     0.00000000
C     -0.65873300    -3.37727200     0.00000000
C     -1.84810700    -1.23669700     0.00000000
N     -1.84274400     0.16706400     0.00000000
C     -0.62557000     0.89013200     0.00000000
C      0.61525000     0.18535300     0.00000000
H     -1.94397200    -5.39920000    -0.00000000
H     -4.20783800    -3.74823300    -0.00000000
H     -5.27027000    -1.69762500    -0.00000000
H     -5.18689500     0.79754900     0.00000000
H     -4.00284100     2.79747600     0.00000000
H     -1.86013600     4.10526700     0.00000000
H      0.56685900     4.11312700    -0.00000100
H      2.74342000     2.91497800    -0.00000100
H      4.00235700     0.81858300    -0.00000000
H      4.04626300    -1.67713900     0.00000000
H      1.94780500    -2.96080300     0.00000000
H      0.31493000    -3.87675500     0.00000000
