042
BNPAH_000185_PAH54   C24_H16_N01_B01 -1003.19471288     0.00000000     6.07344000  5266.45121538     8.39262423   228.37493769 22034.83188515    30.61890241     0.04879433     1.32776127   128.10948768    -4.36870000    -0.16054677  -100.74461610  -421.51547376    -2.63860000    -0.09696676   -60.84756198  -254.58619934     1.73010000     0.06358000    39.89705412   166.92927442
C      7.91906000     1.62275200     0.00001100
C      7.78586000     0.21212400     0.00000400
C      6.53362700    -0.37301300    -0.00000200
C      5.35451300     0.42899300    -0.00000000
C      4.07048100    -0.17848300    -0.00000600
C      2.86142600     0.52114300    -0.00000500
C      2.88039100     1.95918600     0.00000200
B      4.21547200     2.70512000     0.00000800
C      5.47711100     1.85784500     0.00000700
C      6.78480000     2.41728300     0.00001200
N      1.62368500     2.61608900    -0.00000100
C      1.66377700     3.99577900    -0.00000000
C      0.55817500     4.80253500    -0.00000900
C     -0.70196500     4.19481400    -0.00002000
C     -0.75025100     2.81330100    -0.00001900
C      0.38037200     1.96372800    -0.00000700
C      0.32908600     0.48848100    -0.00000400
C      1.57865300    -0.19051100    -0.00000800
C      1.61793400    -1.61804500    -0.00001500
C      0.48749700    -2.37290900    -0.00001600
C     -0.79325600    -1.76171700    -0.00000600
C     -1.92332200    -2.61970300    -0.00000200
C     -3.20961500    -2.12539300     0.00001300
C     -3.36531300    -0.72985600     0.00002600
C     -2.27166200     0.12378700     0.00002200
C     -0.91266000    -0.32228400     0.00000300
H      8.91463300     2.07421600     0.00001500
H      8.68086800    -0.41637600     0.00000200
H      6.43690600    -1.46310400    -0.00000700
H      4.07240400    -1.26609900    -0.00001100
H      4.34438100     3.90805900     0.00001400
H      6.88514100     3.50688900     0.00001800
H      2.67301100     4.39325800     0.00000600
H      0.69387400     5.88461400    -0.00000800
H     -1.62472000     4.77665800    -0.00003000
H     -2.54702400     1.16623100     0.00003800
H      2.57829100    -2.12361100    -0.00002000
H      0.54922100    -3.46393800    -0.00002200
H     -1.73979400    -3.69713900    -0.00001100
H     -4.07534800    -2.79067600     0.00001600
H     -4.36583700    -0.29050600     0.00004100
H     -1.72759400     2.37051700    -0.00003100
