042
BNPAH_000473_PAH55   C24_H16_N01_B01 -1003.15765152     0.01800000    10.48454000  5243.19486117     8.35556287   227.36644673 21937.52729914    30.48369105     0.04857885     1.32189795   127.54376335    -4.07890000    -0.14989681   -94.06166929  -393.55402429    -2.85780000    -0.10502221   -65.90243411  -275.73578431     1.22110000     0.04487460    28.15923518   117.81823998
C      2.59702600    -0.26049300     0.00170900
C      2.43265400    -1.61916300    -0.00108400
C      1.14996400    -2.23559900    -0.00131400
C      1.05698800    -3.62327900    -0.00323300
C     -0.18418300    -4.21576000    -0.00266300
C     -1.37866300    -3.47319300    -0.00095100
C     -2.63856200    -4.22456100    -0.00022400
C     -2.65435300    -5.64394700    -0.00052300
C     -3.83688900    -6.36381300     0.00039300
C     -5.05902900    -5.67325600     0.00163600
C     -5.06641400    -4.28877000     0.00190500
C     -3.86899900    -3.52764300     0.00099500
C     -3.87092600    -2.06477000     0.00081000
C     -5.09459200    -1.40889400     0.00121200
C     -5.25885900    -0.00349600     0.00023100
C     -6.51114300     0.62744600     0.00057300
C     -6.62681300     2.03588300    -0.00078500
C     -5.53446000     2.90756100    -0.00260800
B     -4.13418500     2.33582100    -0.00317500
C     -4.05060400     0.78604800    -0.00154500
C     -2.82633000     0.12506500    -0.00176000
C     -2.61086100    -1.29360600    -0.00019400
C     -1.35895000    -2.03364600    -0.00008900
N     -0.02613900    -1.45029300     0.00076000
C      0.18840000    -0.08086100     0.00430800
C      1.41635900     0.51981500     0.00476500
H      3.58642600     0.19859900     0.00197900
H      3.28690600    -2.29766400    -0.00305000
H      1.97538000    -4.20942900    -0.00470000
H     -0.23000300    -5.30061200    -0.00371700
H     -1.72621500    -6.21256500    -0.00141400
H     -3.81193700    -7.45557500     0.00015700
H     -6.00424700    -6.22102500     0.00236100
H     -6.03080000    -3.78496600     0.00280000
H     -6.00858100    -2.00173300     0.00212200
H     -7.41715600     0.01362600     0.00187600
H     -7.64635600     2.44358800    -0.00039500
H     -5.76064300     3.98029100    -0.00355800
H     -3.11199900     2.99704600    -0.00470200
H     -0.68831100     0.53102500     0.00726300
H     -2.03281700     0.85694000    -0.00382400
H      1.44682700     1.60984800     0.00765300
