042
BNPAH_000316_PAH32   C24_H16_N01_B01 -1003.13944593     0.00800000     7.67063000  5231.77067632     8.33735727   226.87104719 21889.72850972    30.41727137     0.04847301     1.31901772   127.26586341    -4.80980000    -0.17675689  -110.91662383  -464.07515410    -2.91950000    -0.10728965   -67.32526992  -281.68892935     1.89030000     0.06946724    43.59135391   182.38622475
C      1.36683300    -2.36278800    -0.00115800
C      0.06429700    -2.81348800    -0.00017600
C     -1.03174200    -1.91432300     0.00014400
C     -2.33180500    -2.48180300     0.00087400
C     -3.43192300    -1.69075200     0.00099100
C     -3.34716000    -0.25313800     0.00058200
C     -4.60217700     0.48517200     0.00053800
C     -5.79955300    -0.28137000     0.00079800
C     -7.04145200     0.25506200     0.00060300
C     -7.16708000     1.66106700    -0.00001200
C     -8.48796700     2.17725500    -0.00036500
C     -8.74513000     3.52926900    -0.00115100
C     -7.63290900     4.37636600    -0.00163900
C     -6.32901200     3.88938000    -0.00127500
C     -6.00120200     2.50329900    -0.00034000
N     -4.65817000     1.88495800     0.00015900
C     -3.40597700     2.57686700     0.00045700
C     -2.11335200     1.85340000     0.00055100
C     -0.95275300     2.63802700     0.00119800
B     -0.85595900     4.13796400     0.00163700
C     -2.21700000     4.79231200     0.00139000
C     -3.34762300     3.99740200     0.00087400
C     -2.07738200     0.38476200     0.00019800
C     -0.86541600    -0.48142800    -0.00035600
C      0.50945400    -0.08210200    -0.00156300
C      1.57182100    -0.97416200    -0.00191700
H      2.20847700    -3.05886600    -0.00143900
H     -0.15740900    -3.88377500     0.00031400
H     -2.43612900    -3.56912000     0.00121100
H     -4.38347500    -2.20691100     0.00142400
H     -5.72650900    -1.35800400     0.00115400
H     -7.93297100    -0.37329500     0.00081500
H     -9.30220000     1.44915100    -0.00002800
H     -9.76403500     3.92047900    -0.00144400
H     -7.76354200     5.46059300    -0.00234800
H     -4.26005200     4.54498900     0.00093900
H      0.81148100     0.95169900    -0.00241100
H      0.20264300     4.72584900     0.00220700
H     -2.41167500     5.87224800     0.00168800
H     -5.61121100     4.68469100    -0.00185300
H     -0.02387500     2.10253100     0.00157100
H      2.58661200    -0.56948800    -0.00284100
