036
BNPAH_000353_PAH24   C20_H14_N01_B01  -849.71208926     0.00000000     2.44536000  4505.72960679     7.18033718   195.38692682 18851.97267481    30.86116169     0.04918039     1.33826662   129.12310051    -5.15900000    -0.18958975  -118.96936719  -497.76783234    -2.44020000    -0.08967570   -56.27234926  -235.44350930     2.71880000     0.09991406    62.69701794   262.32432304
C     -1.59724400     1.74957500    -0.00000800
C     -0.42127300     2.55130900    -0.00004000
C      0.82377500     1.96112400    -0.00004600
C      0.95739300     0.53973700    -0.00002000
C      2.22359000    -0.08587900    -0.00002400
C      2.41305000    -1.47391700     0.00000300
C      1.19314300    -2.27014600     0.00002200
C      1.25532300    -3.70613500     0.00002700
C      2.45399600    -4.33369300     0.00000700
C      3.69419500    -3.59640800    -0.00000700
C      3.73933100    -2.14689500     0.00000300
C      5.04900700    -1.53884000     0.00001200
C      5.38302600    -0.14118300     0.00005500
C      6.68425000     0.32862200     0.00005600
C      7.83970700    -0.50959500     0.00001500
C      7.71270300    -1.87829800    -0.00002100
B      6.30123100    -2.44442000    -0.00001900
N      6.07658300    -3.87587000    -0.00004200
C      4.84711600    -4.39246100    -0.00003000
C     -0.06463600    -1.66181500     0.00002900
C     -0.23073700    -0.26566600     0.00001100
C     -1.50551500     0.37472400     0.00001600
H     -2.57731500     2.23294300    -0.00000400
H     -0.51188000     3.64012200    -0.00005900
H      1.72816000     2.57552900    -0.00007000
H      4.63095600     0.64038200     0.00009900
H      0.32004200    -4.27046500     0.00004000
H      2.51054100    -5.42553900     0.00000300
H      3.06855600     0.58760300    -0.00005600
H      6.83416600     1.41231800     0.00009100
H      8.82305300    -0.02528600     0.00001900
H      8.62238700    -2.49200500    -0.00004500
H      6.85407500    -4.53230600    -0.00006100
H      4.74844600    -5.48104900    -0.00004100
H     -0.95088400    -2.30270200     0.00004600
H     -2.40716600    -0.24339500     0.00004000
