036
BNPAH_000056_PAH18   C20_H14_N01_B01  -849.64173856     0.00000000    14.35978000  4461.58386598     7.10998646   193.47258633 18667.26689526    30.55879360     0.04869854     1.32515470   127.85799242    -4.51450000    -0.16590482  -104.10684400  -435.58303530    -3.33360000    -0.12250754   -76.87464285  -321.64350570     1.18090000     0.04339727    27.23220115   113.93952960
C     -2.27106400    -3.62055000    -0.00000000
C     -2.40157200    -2.24476500    -0.00000100
B     -1.12944400    -1.39040400    -0.00000000
C      0.21360600    -2.15617000     0.00000000
C      0.19803900    -3.58706200     0.00000100
C     -0.99651200    -4.27895700     0.00000000
C      1.42027300    -1.44175800     0.00000100
C      1.49207200    -0.02996400     0.00000000
C      0.25736500     0.74388700     0.00000000
C      0.35461100     2.17130000     0.00000000
C      1.55109400     2.84734800     0.00000000
C      2.78126900     2.13280900     0.00000000
C      4.00530400     2.82577300     0.00000000
C      5.21568800     2.14043000     0.00000000
N      6.42704500     2.79441600     0.00000000
C      7.63089800     2.17498200    -0.00000000
C      7.68543500     0.78568100    -0.00000100
C      6.49660000     0.05197900    -0.00000000
C      5.23438900     0.69389000     0.00000000
C      4.00445200     0.01333800     0.00000000
C      2.76030300     0.66717600     0.00000000
C     -1.00375800     0.12708000    -0.00000000
H     -3.15849600    -4.26662800    -0.00000100
H     -3.41969100    -1.83429400    -0.00000100
H      1.14283600    -4.14721600     0.00000100
H     -0.98075800    -5.37345000     0.00000000
H      2.35707100    -2.01252100     0.00000100
H     -0.58154800     2.73763400    -0.00000000
H      1.57576700     3.93991700     0.00000000
H      3.99549900     3.91957000     0.00000000
H      6.40446500     3.81178400     0.00000000
H      8.51018100     2.81835700    -0.00000000
H      8.65661800     0.29069500    -0.00000100
H      6.53107300    -1.03983600    -0.00000100
H      4.04248600    -1.07607100     0.00000000
H     -1.86312500     0.81164000    -0.00000100
