042
BNPAH_000442_PAH74   C24_H16_N01_B01 -1003.29114696     0.00000000     0.92738000  5326.96452598     8.48905833   230.99904318 22288.01957670    30.97072399     0.04935499     1.34301769   129.58150917    -4.93730000    -0.18144243  -113.85684370  -476.37703404    -2.45910000    -0.09037026   -56.70819362  -237.26708209     2.47820000     0.09107217    57.14865008   239.10995195
C      8.14358000    -2.94313300     0.00000200
C      6.96130100    -3.64245600     0.00000200
C      5.70166800    -2.96026400     0.00000000
C      4.47872200    -3.64539200    -0.00000000
C      3.24926300    -2.96209400    -0.00000100
C      1.99646900    -3.63391400    -0.00000200
C      0.78678500    -2.95418600    -0.00000200
C      0.77805400    -1.50225300    -0.00000200
C      1.99479300    -0.82926200    -0.00000200
C      3.24085500    -1.51406000    -0.00000200
C      4.47097800    -0.82825100    -0.00000100
C      5.69602300    -1.50940300    -0.00000000
C      6.95292500    -0.82111000     0.00000100
C      8.13855500    -1.51466700     0.00000200
C     -0.51442300    -0.79280600    -0.00000200
C     -1.73135700    -1.50288100    -0.00000100
N     -1.71975000    -2.89572700    -0.00000100
B     -0.55736300    -3.70295400    -0.00000200
C     -2.99628100    -0.80933200     0.00000000
C     -4.25037700    -1.48216400     0.00000100
C     -5.44433800    -0.78441500     0.00000300
C     -5.44582800     0.62949100     0.00000300
C     -4.24655900     1.31471700     0.00000100
C     -3.00502000     0.62459300     0.00000000
C     -1.76390100     1.32143800    -0.00000100
C     -0.57674300     0.63416600    -0.00000200
H      9.09712300    -3.47665400     0.00000300
H      6.96256300    -4.73568500     0.00000200
H      4.47817100    -4.73918500     0.00000000
H      1.99225400    -4.72808000    -0.00000100
H      2.03294800     0.26136700    -0.00000200
H      4.47026600     0.26560600    -0.00000200
H      6.94938300     0.27210400     0.00000000
H      9.08882300    -0.97512600     0.00000200
H     -2.63563300    -3.33044700    -0.00000100
H     -0.67762700    -4.90129000    -0.00000200
H     -4.29959600    -2.57393100     0.00000200
H     -6.39063400    -1.33025000     0.00000400
H     -6.39294900     1.17397600     0.00000300
H     -4.23376400     2.40781000     0.00000100
H     -1.76960600     2.41395500    -0.00000100
H      0.35365700     1.20214100    -0.00000300
