042
BNPAH_000060_PAH57   C24_H16_N01_B01 -1003.18801291     0.00000000    14.58535000  5262.24692031     8.38592426   228.19262220 22017.24111458    30.59445884     0.04875537     1.32670129   128.00721579    -4.16960000    -0.15322997   -96.15326099  -402.30524399    -3.28070000    -0.12056350   -75.65473986  -316.53943159     0.88890000     0.03266647    20.49852113    85.76581240
C      2.76476900    -0.02212600     0.00000000
C      2.82438100    -1.40530400     0.00000100
B      1.51849400    -2.19602500     0.00000100
C      1.38663500    -3.73196400     0.00000100
C      0.14411500    -4.32557100     0.00000000
C     -1.06742200    -3.56516100    -0.00000000
C     -2.30222400    -4.23292300    -0.00000000
C     -3.52430000    -3.55917000    -0.00000000
C     -4.78029100    -4.21589500    -0.00000100
C     -5.95408600    -3.52428300    -0.00000000
N     -5.98816300    -2.12615500    -0.00000000
C     -7.24214900    -1.46049400     0.00000000
C     -8.46726800    -2.16312000     0.00000000
C     -9.67587900    -1.47632900     0.00000100
C     -9.71454600    -0.07155400     0.00000100
C     -8.52225800     0.63247700     0.00000000
C     -7.27689400    -0.03772500     0.00000000
C     -6.04336200     0.68295600    -0.00000000
C     -4.85899300     0.01097600    -0.00000000
C     -4.78936900    -1.41591100    -0.00000000
C     -3.53352400    -2.10898400    -0.00000000
C     -2.29665600    -1.43890700    -0.00000000
C     -1.05124200    -2.09363500    -0.00000000
C      0.20824200    -1.39124700    -0.00000000
C      0.29948600     0.02858400    -0.00000000
C      1.52468000     0.67974500    -0.00000000
H      3.68164900     0.58155900     0.00000000
H      3.81908900    -1.87004100     0.00000100
H      2.25554600    -4.40378300     0.00000100
H      0.02950600    -5.41701300     0.00000000
H     -2.30636600    -5.32690100    -0.00000000
H     -4.82548300    -5.30682600    -0.00000100
H     -6.91091400    -4.02901800    -0.00000100
H     -8.50404400    -3.24934600     0.00000000
H    -10.60608400    -2.04843200     0.00000100
H    -10.67101100     0.45437300     0.00000100
H     -8.51934000     1.72484100     0.00000000
H     -6.06426900     1.77447400    -0.00000000
H     -3.92131100     0.56053500    -0.00000100
H     -2.27891600    -0.35064500    -0.00000000
H     -0.59862200     0.65978800    -0.00000100
H      1.54221200     1.77418100    -0.00000100
