042
BNPAH_000093_PAH33   C24_H16_N01_B01 -1003.17007245     0.00100000    16.58437000  5250.98911554     8.36798380   227.70443759 21970.13845942    30.52900649     0.04865107     1.32386301   127.73336315    -4.08400000    -0.15008423   -94.17927808  -394.04609949    -3.23010000    -0.11870399   -74.48787613  -311.65727374     0.85390000     0.03138025    19.69140195    82.38882575
C      2.09465300    -1.44720200     0.00009600
C      0.96362400    -2.31658300     0.00012000
C     -0.34506400    -1.86880900     0.00008800
B     -0.65528400    -0.35455600     0.00002000
C      0.63718700     0.51895600     0.00000300
C      0.55093000     1.92842000    -0.00004800
C     -0.66799300     2.58338300    -0.00008100
C     -1.90911100     1.89154700    -0.00007000
C     -3.09060000     2.68011300    -0.00011300
C     -4.35228000     2.14532100    -0.00010300
C     -4.57959300     0.73300800    -0.00005100
C     -3.36084600    -0.07984000    -0.00003600
C     -3.51547800    -1.49799300    -0.00005000
C     -4.73455300    -2.10516900    -0.00007200
C     -5.93469900    -1.34479400    -0.00006300
C     -5.88633800     0.09961600    -0.00003200
C     -7.21047100     0.75518100     0.00001800
C     -7.44072200     2.13635900     0.00012400
N     -8.68343600     2.68641000     0.00016100
C     -9.83195400     1.94879800     0.00010500
C     -9.71452500     0.59065400     0.00001900
C     -8.43589700    -0.04971900    -0.00001800
C     -8.37946700    -1.45020900    -0.00007700
C     -7.14634800    -2.06902000    -0.00008900
C     -2.02083400     0.45662100    -0.00002700
C      1.93230700    -0.07898600     0.00004000
H      3.09869300    -1.88184700     0.00012400
H      1.16544100    -3.39552000     0.00016800
H     -2.61792600    -2.10173400    -0.00005500
H      1.47098100     2.52794900    -0.00005900
H     -0.69807800     3.67737800    -0.00011900
H     -2.98295300     3.76937400    -0.00015800
H     -6.65719700     2.87706900     0.00019700
H     -1.07065700    -2.68978800     0.00011900
H     -4.81185800    -3.19505100    -0.00009400
H     -5.15136300     2.87097300    -0.00015300
H     -8.74819100     3.70006400     0.00023800
H    -10.77445600     2.49477600     0.00014000
H    -10.61335200    -0.02719600    -0.00001600
H     -9.30592100    -2.02750600    -0.00009900
H     -7.08336100    -3.15994500    -0.00012200
H      2.81816000     0.56949700     0.00002600
