042
BNPAH_000382_PAH75   C24_H16_N01_B01 -1003.17272668     0.00000000    18.55416000  5252.65466459     8.37063803   227.77666263 21977.10711664    30.53868991     0.04866650     1.32428292   127.77387858    -4.15010000    -0.15251336   -95.70358030  -400.42378000    -3.52960000    -0.12971041   -81.39451026  -340.55463094     0.62050000     0.02280295    14.30907004    59.86914905
C      2.76997700     0.29592200    -0.00000200
C      2.82581100    -1.13498500    -0.00000100
C      1.67991700    -1.89152500    -0.00000000
C      0.39399600    -1.25917900     0.00000000
C     -0.80917400    -1.96350000     0.00000100
C     -2.07446100    -1.33772800     0.00000100
N     -2.06633000     0.07831800     0.00000100
C     -3.28099100     0.77034000     0.00000100
C     -4.47030700     0.11895800     0.00000100
C     -4.57099200    -1.31087100     0.00000100
C     -5.82340800    -1.98348400     0.00000100
C     -7.07104700    -1.27690900     0.00000000
C     -8.25845500    -1.95273900    -0.00000000
C     -8.35158100    -3.38881600    -0.00000100
C     -9.59548100    -4.02820100    -0.00000200
B     -9.70046600    -5.54251700    -0.00000200
C     -8.35108100    -6.27770900    -0.00000100
C     -7.16702300    -5.57453300     0.00000000
C     -7.10287100    -4.13888500     0.00000000
C     -5.86358800    -3.43198100     0.00000100
C     -4.59788900    -4.10503800     0.00000200
C     -3.39085900    -3.45239800     0.00000200
C     -3.32456200    -2.02937100     0.00000100
C     -0.90558000     0.78862300    -0.00000000
C      0.34469900     0.18766400    -0.00000000
C      1.56015000     0.94392900    -0.00000100
H      3.69965200     0.86843300    -0.00000200
H      3.80097500    -1.62731200    -0.00000200
H      1.73120200    -2.98252900     0.00000000
H     -0.77981300    -3.05154600     0.00000100
H     -3.18929100     1.85552700     0.00000100
H     -5.36888100     0.73425500     0.00000100
H     -7.08538500    -0.18576800     0.00000000
H     -9.19671300    -1.38998600    -0.00000100
H    -10.46727000    -3.35999400    -0.00000200
H    -10.76214700    -6.12954700    -0.00000300
H     -8.26386600    -7.37205600    -0.00000100
H     -6.22197100    -6.12767300     0.00000100
H     -4.58485000    -5.19449000     0.00000200
H     -2.47799400    -4.04875100     0.00000200
H     -1.02521100     1.87271000    -0.00000000
H      1.50855700     2.03534500    -0.00000200
