042
BNPAH_000243_PAH42   C24_H16_N01_B01 -1003.16500415     0.05500000    12.09286000  5247.80870818     8.36291550   227.56652207 21956.83163503    30.51051575     0.04862160     1.32306118   127.65599790    -4.39970000    -0.16168599  -101.45949309  -424.50651908    -3.26940000    -0.12014823   -75.39415567  -315.44914733     1.13030000     0.04153776    26.06533742   109.05737176
C      2.94596100    -0.12094800    -0.00280100
C      2.77839800    -1.48340700     0.00294400
C      1.45624700    -2.03238400     0.00186400
C      1.20017300    -3.39242500     0.00610000
N     -0.05691800    -3.92307600     0.00495900
C     -0.14165800    -5.30920200     0.00734000
C     -1.34990700    -5.91437400     0.00418800
C     -2.56989400    -5.17939800     0.00057600
C     -3.76366000    -5.92889900    -0.00337600
C     -4.97598500    -5.27793400    -0.00709200
C     -5.07082800    -3.87201300    -0.00462600
C     -6.38731600    -3.34243400    -0.00687200
C     -6.67661100    -1.98138300    -0.00275500
C     -8.00925800    -1.45724300    -0.00476200
C     -8.21538500    -0.09571400     0.00089200
C     -7.13663900     0.86078500     0.00919000
C     -5.81171200     0.48890000     0.01206200
B     -5.47496000    -1.01522500     0.00580700
C     -4.09037600    -1.63717400     0.00763200
C     -3.85396600    -3.02076400     0.00130800
C     -2.55314100    -3.73524500     0.00102200
C     -1.23858200    -3.11194200     0.00059300
C     -0.96466000    -1.72893400    -0.00563300
C      0.31176900    -1.16096300    -0.00507600
C      0.53226100     0.25297300    -0.01125100
C      1.81246400     0.75261500    -0.01002100
H      3.95056200     0.30727900    -0.00203300
H      3.63897700    -2.15654000     0.00819100
H      2.00505400    -4.12788700     0.01002000
H      0.81054700    -5.83669400     0.01049000
H     -1.39056200    -7.00493400     0.00477700
H     -3.70268000    -7.01907100    -0.00402500
H     -5.90516300    -5.85441500    -0.01090200
H     -7.19925800    -4.08313900    -0.01160100
H     -8.87207900    -2.13564100    -0.01066500
H     -9.24013400     0.28968400    -0.00074900
H     -7.42295900     1.92049800     0.01327000
H     -5.06164800     1.29174700     0.01850700
H     -1.80152100    -1.04978700    -0.01276300
H     -3.26815500    -0.93016200     0.01656400
H     -0.33079400     0.92215400    -0.01670600
H      1.97477400     1.83274600    -0.01458400
