042
BNPAH_000195_PAH60   C24_H16_N01_B01 -1003.19869338     0.00000000     9.64567000  5268.94901766     8.39660473   228.48325265 22045.28268989    30.63342452     0.04881747     1.32839100   128.17024819    -4.49430000    -0.16516248  -103.64102093  -433.63403157    -2.85660000    -0.10497811   -65.87476145  -275.62000191     1.63770000     0.06018437    37.76625948   158.01402966
C     -2.81499900     0.09567500    -0.00000100
C     -2.69883000     1.49964400    -0.00000100
C     -1.44728400     2.09900200    -0.00000100
C     -0.24721900     1.33964700    -0.00000000
C     -0.37734100    -0.08496400     0.00000100
C      0.79487600    -0.92095000     0.00000200
C      2.08264900    -0.45534300     0.00000200
B      2.36580200     1.07216500     0.00000100
C      3.74254000     1.84581200     0.00000000
C      5.05918200     1.23935300    -0.00000000
C      5.25022500    -0.17277600    -0.00000100
C      6.49874600    -0.75980500    -0.00000100
C      7.66480700     0.03446000    -0.00000100
C      7.53339300     1.40628600    -0.00000100
C      6.25440200     2.03170800    -0.00000000
C      6.15441200     3.46477800     0.00000000
C      7.29827900     4.30404600     0.00000000
C      7.21509300     5.67720900     0.00000000
C      5.93135000     6.25482800     0.00000100
C      4.83135300     5.43953200     0.00000100
N      4.89976000     4.05988600     0.00000000
C      3.68351800     3.28041200     0.00000000
C      2.45701700     3.97790700     0.00000000
C      1.23122100     3.32628900    -0.00000000
C      1.08792200     1.93016800     0.00000000
C     -1.66403800    -0.67669100     0.00000000
H     -3.80054600    -0.37672100    -0.00000100
H     -3.59755000     2.12240700    -0.00000200
H     -1.39850600     3.18953100    -0.00000200
H      0.60559800    -2.00224400     0.00000300
H      4.37687800    -0.80860900    -0.00000100
H      2.81874000    -1.26337700     0.00000300
H      6.57963700    -1.84955800    -0.00000200
H      8.65532900    -0.42473400    -0.00000200
H      8.44025000     2.00970200    -0.00000100
H      8.27548500     3.82942400     0.00000000
H      8.11565800     6.29310000     0.00000100
H      5.78182600     7.33496200     0.00000100
H      3.83801900     5.86490900     0.00000100
H      2.40576300     5.06216800    -0.00000000
H      0.35280000     3.97938100    -0.00000000
H     -1.73431100    -1.76862100     0.00000100
