042
BNPAH_000355_PAH72   C24_H16_N01_B01 -1003.20777675     0.00000000    11.47029000  5274.64892175     8.40568811   228.73042388 22069.13108860    30.66656350     0.04887028     1.32982805   128.30890168    -4.22520000    -0.15527324   -97.43542746  -407.66982850    -3.50020000    -0.12862998   -80.71653015  -337.71796216     0.72500000     0.02664326    16.71889731    69.95186634
C      2.73736600     0.21353700     0.00000100
C      2.69297400    -1.20164300     0.00000100
C      1.47691600    -1.86824500     0.00000000
C      0.28125200    -1.12328200    -0.00000000
N     -0.94586800    -1.74325400    -0.00000100
C     -2.15386100    -1.12653800    -0.00000100
C     -2.17015300     0.32037400    -0.00000100
C     -3.43327500     0.98393400    -0.00000100
C     -4.60385500     0.25658600    -0.00000100
C     -4.61728900    -1.16384300    -0.00000100
C     -3.37026800    -1.89078500    -0.00000100
C     -3.40914200    -3.28992100    -0.00000100
C     -4.60905600    -4.04845600    -0.00000100
C     -4.56494700    -5.45933000    -0.00000100
B     -5.83071500    -6.26380900    -0.00000100
C     -7.15552200    -5.45827700    -0.00000000
C     -8.41059600    -6.11827000     0.00000100
C     -9.61300200    -5.42551600     0.00000200
C     -9.59510900    -4.01686800     0.00000100
C     -8.38795600    -3.33419800     0.00000100
C     -7.14681400    -4.02386000    -0.00000000
C     -5.87191300    -3.30204200    -0.00000100
C     -5.81482400    -1.90771100    -0.00000100
C     -0.93627400     0.98885600    -0.00000000
C      0.29957800     0.30537700     0.00000000
C      1.56907800     0.95154900     0.00000100
H      3.70388700     0.72158200     0.00000200
H      3.62233700    -1.77455600     0.00000100
H      1.43705700    -2.96047400     0.00000000
H     -0.95274100    -2.76179400    -0.00000100
H     -3.44829000     2.07522000    -0.00000100
H     -5.56373900     0.77994700    -0.00000100
H     -2.48415900    -3.87875200    -0.00000100
H     -3.55912900    -5.89983000    -0.00000100
H     -5.85695000    -7.47620000    -0.00000100
H     -8.41421900    -7.21204200     0.00000100
H    -10.56616500    -5.96123100     0.00000200
H    -10.53377900    -3.45615200     0.00000200
H     -8.41524700    -2.24293900     0.00000100
H     -6.74215000    -1.33237100    -0.00000100
H     -0.93184900     2.08182600    -0.00000000
H      1.59997800     2.04337700     0.00000100
