038
BNPAH_000348_PAH66   C22_H14_N01_B01  -925.81724822     0.02900000     9.18788000  4800.22734720     7.64964920   208.15755743 20084.15122068    30.38118574     0.04841550     1.31745290   127.11488114    -4.13130000    -0.15182248   -95.27004200  -398.60985574    -3.26850000    -0.12011516   -75.37340118  -315.36231053     0.86280000     0.03170732    19.89664082    83.24754521
C      4.11327100    -2.93308000     0.00337200
C      2.92054100    -3.66606100     0.00674300
N      1.74568900    -3.00741900     0.00542000
C      1.54254200    -1.65700300     0.00077300
C      2.76634400    -0.87209800    -0.00114100
C      4.02647600    -1.55846200    -0.00028500
C      2.68747800     0.50500000    -0.00309800
C      1.43855200     1.16378600    -0.00243300
C      1.40837600     2.57112600    -0.00293200
C      0.19496500     3.24411100    -0.00168800
C     -1.00051300     2.53552200    -0.00006100
C     -1.04810500     1.12108200     0.00014600
C     -2.30192200     0.40450800     0.00158800
C     -3.54228800     1.13670200     0.00395700
C     -4.80482000     0.58794000     0.00483700
B     -4.92419200    -0.92137900     0.00274700
C     -3.58492900    -1.69818600    -0.00000900
C     -2.30344700    -1.02180900    -0.00005400
C     -1.06295800    -1.77723800    -0.00225900
C     -1.22420900    -3.19153700    -0.00649700
C     -2.45241400    -3.84223800    -0.00671100
C     -3.62831600    -3.09339100    -0.00302300
C      0.22363900    -1.05280700    -0.00093300
C      0.20342400     0.38657500    -0.00108200
H      5.07173300    -3.45256700     0.00429600
H      2.86591900    -4.75381500     0.01057000
H     -0.41252200    -3.91479400    -0.01111000
H      4.93376500    -0.95010100    -0.00221300
H      3.60418900     1.09822500    -0.00426100
H      2.35556800     3.11481100    -0.00406700
H      0.17241500     4.33686000    -0.00192900
H     -1.92700200     3.10425300     0.00084400
H     -3.46228800     2.22544000     0.00517600
H     -5.64941700     1.28566600     0.00674900
H     -5.96893300    -1.53508200     0.00283700
H      0.91131800    -3.57996300     0.00892100
H     -2.47633900    -4.93455600    -0.01003100
H     -4.60093700    -3.59258300    -0.00316000
