018
BNPAH_000712_PAH01   C04_H08_N03_B03  -395.83150291     0.00000000     6.43358000  1893.12490298     3.01688657    82.09366499  7920.83459407    27.84007210     0.04436598     1.20725978   116.48286167    -4.98850000    -0.18332400  -115.03754376  -481.31708308    -1.38280000    -0.05081696   -31.88812579  -133.41991831     3.60570000     0.13250703    83.14941797   347.89716477
B     -0.00000000     1.54525400     1.55031500
N      0.00000000     2.61124500     0.59410200
C      0.00000000     2.40102000    -0.77090400
C     -0.00000000     1.17331600    -1.34059800
C     -0.00000000    -1.16738800    -1.31806800
N     -0.00000000    -2.36657100    -0.74067900
C      0.00000000    -2.65579500     0.60957100
B     -0.00000000    -1.53453200     1.60365300
B     -0.00000000    -0.01897800     0.91041700
N     -0.00000000    -0.02037100    -0.59283100
H     -0.00000000     1.88660500     2.70972200
H      0.00000000     3.58966100     0.87301300
H      0.00000000     3.28157000    -1.41634900
H     -0.00000000     1.07451300    -2.42754300
H     -0.00000000    -1.12413400    -2.40752800
H      0.00000000    -3.14379700    -1.39929100
H      0.00000000    -3.73867800     0.77626500
H     -0.00000000    -1.79294100     2.78673200
