042
BNPAH_000086_PAH38   C24_H16_N01_B01 -1003.22931755     0.00000000     3.12286000  5288.16597930     8.42722891   229.31657897 22125.68645739    30.74515104     0.04899552     1.33323592   128.63771195    -4.65610000    -0.17110852  -107.37221760  -449.24535843    -2.19420000    -0.08063536   -50.59945445  -211.70811741     2.46190000     0.09047316    56.77276315   237.53724102
C      8.10860900     0.48460400     0.00000100
C      6.96883700    -0.29306200     0.00000000
C      5.65681100     0.24021900    -0.00000000
B      4.39361100    -0.61288700    -0.00000100
C      3.06660800     0.13332800    -0.00000100
C      1.80039700    -0.48478000    -0.00000100
C      0.59070600     0.21795000    -0.00000100
C      0.63690400     1.66064300    -0.00000100
C      1.87746100     2.29412000    -0.00000100
C      3.09810800     1.57248900    -0.00000100
C      4.32254600     2.26879500    -0.00000000
N      5.53485600     1.65465100    -0.00000000
C      6.68734200     2.44203700     0.00000100
C      7.93805000     1.89342600     0.00000100
C     -0.61977300     2.42838900    -0.00000100
C     -0.61923400     3.84242400    -0.00000100
C     -1.79591800     4.57835100    -0.00000000
C     -3.02882500     3.90958000     0.00000000
C     -3.05562100     2.52189800     0.00000000
C     -1.87054000     1.74958600    -0.00000000
C     -1.91576300     0.27900700    -0.00000000
C     -3.14492500    -0.41976200     0.00000100
C     -3.20095300    -1.80678700     0.00000100
C     -2.00893300    -2.54653400     0.00000000
C     -0.78984000    -1.88383600    -0.00000000
C     -0.70584500    -0.47133200    -0.00000100
H      9.10541800     0.04185800     0.00000100
H      7.03840300    -1.38289700     0.00000000
H      4.48595300    -1.81708600    -0.00000100
H      1.78901600    -1.57534300    -0.00000100
H      1.93267100     3.38366900    -0.00000100
H      4.35317600     3.35865900    -0.00000000
H      6.50968700     3.51734000     0.00000100
H      8.79678000     2.56769500     0.00000200
H      0.32786000     4.38209700    -0.00000100
H     -1.75736600     5.67018200     0.00000000
H     -3.96488100     4.47301200     0.00000100
H     -4.02490000     2.02366600     0.00000100
H     -4.08294100     0.13535500     0.00000100
H     -4.16854000    -2.31396800     0.00000200
H     -2.03494900    -3.63874800     0.00000100
H      0.12377700    -2.47800800    -0.00000100
