042
BNPAH_000141_PAH73   C24_H16_N01_B01 -1003.19778758     0.00000000     9.30709000  5268.38062279     8.39569894   228.45860471 22042.90452575    30.63011990     0.04881220     1.32824770   128.15642166    -4.13540000    -0.15197315   -95.36459025  -399.00544560    -2.62960000    -0.09663602   -60.64001705  -253.71783135     1.50580000     0.05533713    34.72457320   145.28761425
C      8.09521700     0.03613200    -0.00000100
C      6.93283200    -0.70559700    -0.00000100
C      5.65627300    -0.07090200     0.00000000
C      4.44355900    -0.79966800     0.00000100
C      3.18999600    -0.18456200     0.00000100
B      1.86134000    -0.96702500     0.00000100
C      0.57254500    -0.14816600     0.00000100
C      0.64293200     1.31088300     0.00000100
C      1.87508000     1.94696100     0.00000100
C      3.13818400     1.26593900     0.00000100
C      4.33387000     2.00131800     0.00000100
C      5.59467300     1.37150900     0.00000000
C      6.81976800     2.10679200    -0.00000000
C      8.03532200     1.45788500    -0.00000100
C     -0.62617600     2.06477400     0.00000100
C     -0.67346500     3.44122400     0.00000100
N     -1.84797200     4.17417300     0.00000000
C     -1.79840000     5.55683800     0.00000100
C     -2.92992500     6.32006000     0.00000000
C     -4.20549000     5.67780600    -0.00000100
C     -4.26837400     4.31089900    -0.00000100
C     -3.08450600     3.50129700    -0.00000100
C     -3.08230800     2.11599100    -0.00000100
C     -1.89430500     1.33931700    -0.00000000
C     -1.89873800    -0.06102400    -0.00000000
C     -0.68677100    -0.76368400     0.00000000
H      9.06715700    -0.46334400    -0.00000200
H      6.97278400    -1.79842000    -0.00000100
H      4.49401200    -1.89321500     0.00000000
H      1.83653800    -2.17830500     0.00000100
H      1.92939200     3.03950200     0.00000100
H      4.29431300     3.09569400     0.00000100
H      6.77612200     3.19958700    -0.00000000
H      8.96333100     2.03555900    -0.00000200
H      0.22564800     4.05478200     0.00000100
H     -0.79293300     5.97771300     0.00000100
H     -2.83961300     7.40630100     0.00000000
H     -5.11879100     6.27539500    -0.00000100
H     -5.22499700     3.78658500    -0.00000200
H     -4.05017800     1.61166800    -0.00000100
H     -2.85385500    -0.59109000    -0.00000100
H     -0.71641800    -1.85760300     0.00000000
