042
BNPAH_000565_PAH72   C24_H16_N01_B01 -1003.22604464     0.00000000     6.93738000  5286.11219630     8.42395600   229.22751851 22117.09342932    30.73321044     0.04897649     1.33271813   128.58775248    -4.46290000    -0.16400855  -102.91691972  -430.60439212    -2.69280000    -0.09895858   -62.09744369  -259.81570439     1.77010000     0.06504998    40.81947604   170.78868774
C      2.82278200     0.18626600    -0.00000200
C      2.78532600    -1.23591900    -0.00000200
C      1.57729900    -1.89988600    -0.00000100
C      0.34523600    -1.18035400    -0.00000000
C     -0.90829600    -1.83231600     0.00000100
C     -2.11905200    -1.13945300     0.00000100
C     -2.07315900     0.30574000     0.00000100
C     -3.30562400     1.04821000     0.00000100
C     -4.51465100     0.40921300     0.00000200
C     -4.64135400    -1.02176100     0.00000200
C     -3.43315500    -1.80901400     0.00000200
C     -3.53304200    -3.20435000     0.00000200
C     -4.77883800    -3.88104600     0.00000200
C     -4.75617500    -5.28278400     0.00000200
N     -5.88018800    -6.00383400     0.00000200
C     -7.15527000    -5.44151200     0.00000000
C     -8.28537900    -6.27849300    -0.00000100
C     -9.55209600    -5.71287900    -0.00000200
C     -9.68327900    -4.30797800    -0.00000300
C     -8.56628800    -3.48742300    -0.00000200
C     -7.24776900    -4.01883500    -0.00000000
C     -6.05890800    -3.19472300     0.00000100
B     -6.01945400    -1.67668100     0.00000100
C     -0.83776000     0.96152900     0.00000000
C      0.38385900     0.25957200    -0.00000000
C      1.65266100     0.91407200    -0.00000100
H      3.78752100     0.69971500    -0.00000300
H      3.72134100    -1.79995100    -0.00000300
H      1.54717300    -2.99314200    -0.00000100
H     -0.90088600    -2.92419600     0.00000100
H     -3.24928700     2.14032300     0.00000100
H     -5.43666100     0.99714700     0.00000200
H     -2.63319300    -3.82235800     0.00000300
H     -3.82122700    -5.84815700     0.00000300
H     -5.81396700    -7.01870200     0.00000200
H     -8.15585300    -7.36499700    -0.00000100
H    -10.43702100    -6.35230200    -0.00000300
H    -10.68016700    -3.86096000    -0.00000400
H     -8.67659600    -2.40286500    -0.00000200
H     -7.01553800    -0.98734400     0.00000100
H     -0.82102200     2.05532400     0.00000000
H      1.67952500     2.00708300    -0.00000200
