042
BNPAH_000449_PAH54   C24_H16_N01_B01 -1003.22556332     0.00000000     5.54539000  5285.81016714     8.42347468   229.21442129 22115.82973931    30.73145446     0.04897369     1.33264198   128.58040546    -4.82120000    -0.17717583  -111.17951408  -465.17508689    -2.35770000    -0.08664388   -54.36985405  -227.48346934     2.46350000     0.09053196    56.80966003   237.69161756
C      7.85972400     1.83444300     0.00001300
C      7.86687200     0.41257100     0.00000600
C      6.67859500    -0.28729300    -0.00000100
C      5.42928700     0.39877300    -0.00000000
C      4.18302400    -0.26631100    -0.00000700
C      2.96043000     0.40559000    -0.00000600
C      2.95366400     1.84270000     0.00000100
C      4.18029100     2.51272300     0.00000800
C      5.42051800     1.83396800     0.00000800
C      6.66729800     2.52726700     0.00001400
C      1.66008500     2.57235000    -0.00000100
C      1.71066500     3.98450700    -0.00000000
C      0.58866000     4.79962500    -0.00001000
C     -0.66284000     4.18714300    -0.00002400
C     -0.74579400     2.79879500    -0.00002400
C      0.37054200     1.91187300    -0.00000900
C      0.29344100     0.42477000    -0.00000600
B      1.61110800    -0.36120400    -0.00001100
C      1.58201300    -1.90341100    -0.00002000
C      0.39251600    -2.56371700    -0.00001900
C     -0.85059500    -1.84682100    -0.00000700
C     -2.04538200    -2.56767800    -0.00000100
C     -3.30830000    -1.95084800     0.00001800
C     -3.32660400    -0.57451000     0.00003300
N     -2.17054100     0.12310800     0.00002600
C     -0.87393600    -0.38208500     0.00000300
H      8.80807800     2.37770000     0.00001900
H      8.81999200    -0.12206700     0.00000500
H      6.67785000    -1.38085200    -0.00000700
H      4.19449200    -1.35937000    -0.00001200
H      4.23366300     3.60162000     0.00001300
H      6.66263600     3.62091800     0.00002000
H      2.68255900     4.47408100     0.00000700
H      0.69082700     5.88695200    -0.00000900
H     -1.58131700     4.77925200    -0.00003600
H     -2.24967500     1.13066200     0.00004300
H      2.49003600    -2.51661000    -0.00002600
H      0.32396100    -3.65783200    -0.00002600
H     -1.97987500    -3.65900800    -0.00001000
H     -4.23626700    -2.52135800     0.00002300
H     -4.24108600     0.02071300     0.00005200
H     -1.77832500     2.45890800    -0.00004200
