042
BNPAH_000537_PAH67   C24_H16_N01_B01 -1003.19418178     6.17800000    10.36621000  5266.11795059     8.39209314   228.36048596 22033.43750527    30.61696483     0.04879124     1.32767724   128.10138085    -3.95490000    -0.14533990   -91.20216133  -381.58984302    -2.89510000    -0.10639296   -66.76259255  -279.33468723     1.05980000     0.03894693    24.43956878   102.25515579
C     -2.58256800     3.66087500     1.00481000
C     -1.32264800     3.24169600     1.48287300
C     -3.33020700     2.80041900     0.22363100
C     -0.80336400     2.00881700     1.12474800
C     -2.83898500     1.51362000    -0.11994000
C     -1.51949700     1.12253400     0.27971000
C     -1.01840500    -0.20561300    -0.08531300
C     -3.69239700     0.58044200    -0.79274400
C     -3.30507600    -0.71993900    -0.95585200
C     -2.00007500    -1.12341300    -0.55417900
C      0.34328900    -0.67414500     0.04483200
N     -1.67393100    -2.45485700    -0.63212600
C     -0.50396500    -2.95282000    -0.19551100
C      0.53795700    -2.10556300     0.19774800
C      1.53671100     0.14686500     0.01272300
C      2.76882300    -0.38705600     0.59327000
C      1.77354500    -2.63225300     0.66855300
C      2.81591000    -1.76078500     0.92846100
C      1.54092900     1.40402900    -0.60917600
C      2.67070600     2.26230100    -0.62810500
C      3.89912400     1.88898600     0.03485600
B      4.00052300     0.50347400     0.68303100
C      4.97472800     2.81513200    -0.00378700
C      2.59278400     3.52244400    -1.29833000
C      4.87391500     4.03794200    -0.64962500
C      3.66738000     4.38975000    -1.30513400
H      5.91054500     2.54057400     0.49233400
H      5.71941100     4.73110000    -0.66164400
H      3.58933400     5.35262000    -1.81797600
H      1.66138000     3.79632900    -1.80349100
H     -2.97322700     4.64512400     1.27276300
H     -4.32923900     3.08481600    -0.11694000
H     -0.74516400     3.89338900     2.14220900
H      0.17325600     1.71294500     1.50400900
H     -4.68546800     0.90574200    -1.11075800
H     -3.98192900    -1.46203600    -1.38854500
H     -2.37825400    -3.09329200    -0.99304900
H     -0.39354700    -4.03759700    -0.21947600
H      3.74736500    -2.15012100     1.35015000
H      1.86871500    -3.70986200     0.82086700
H      0.63895400     1.74895100    -1.11919300
H      5.02900200     0.10371600     1.18737500
