042
BNPAH_000221_PAH72   C24_H16_N01_B01 -1003.20500655     0.00000000     8.11168000  5272.91059244     8.40291790   228.65504279 22061.85791877    30.65645693     0.04885417     1.32938978   128.26661580    -4.19600000    -0.15420016   -96.76205946  -404.85245677    -2.76540000    -0.10162658   -63.77163947  -266.82053955     1.43060000     0.05257358    32.99041999   138.03191722
C      2.74998900     0.27121500     0.00000200
C      2.75874800    -1.15703600     0.00000300
C      1.57333200    -1.85385200     0.00000200
C      0.31824800    -1.16837600     0.00000100
C     -0.90942900    -1.84699000    -0.00000000
C     -2.14753100    -1.18459300    -0.00000100
C     -2.17185100     0.27811700    -0.00000200
C     -3.39377700     1.01393100    -0.00000200
B     -4.72000600     0.34456100    -0.00000200
C     -4.65823500    -1.20344700    -0.00000200
C     -3.39559900    -1.92000500    -0.00000200
C     -3.47004000    -3.31941000    -0.00000200
C     -4.67294400    -4.02802000    -0.00000200
C     -4.70697800    -5.45636000    -0.00000300
C     -5.87872700    -6.14822000    -0.00000300
C     -7.12797300    -5.43643800    -0.00000100
C     -8.36302600    -6.12368600     0.00000000
C     -9.57015400    -5.44013400     0.00000300
C     -9.56401400    -4.03728000     0.00000400
C     -8.36347900    -3.33142400     0.00000300
C     -7.13403600    -4.01436900     0.00000000
N     -5.88507800    -3.31619600    -0.00000100
C     -5.82546600    -1.95062500    -0.00000100
C     -0.92394900     0.94599000    -0.00000100
C      0.30640900     0.27852200     0.00000000
C      1.56404600     0.96632100     0.00000100
H      3.70006500     0.81179300     0.00000300
H      3.71237400    -1.69042000     0.00000400
H      1.57286100    -2.94776900     0.00000200
H     -0.87448900    -2.93902200     0.00000000
H     -3.26846300     2.10369200    -0.00000300
H     -5.79698100     0.90276300    -0.00000200
H     -2.56804300    -3.93188500    -0.00000300
H     -3.74397400    -5.96906200    -0.00000400
H     -5.89155900    -7.23946200    -0.00000400
H     -8.34451400    -7.21605300    -0.00000100
H    -10.51486200    -5.98743700     0.00000400
H    -10.50445900    -3.48259100     0.00000600
H     -8.40742400    -2.24436500     0.00000400
H     -6.77972700    -1.43164300    -0.00000100
H     -0.92954900     2.03970700    -0.00000100
H      1.56183400     2.05953900     0.00000000
