042
BNPAH_000244_PAH45   C24_H16_N01_B01 -1003.16104331     7.07600000     9.13404000  5245.32324220     8.35895466   227.45874207 21946.43244536    30.49606536     0.04859857     1.32243455   127.59553747    -3.75800000    -0.13810395   -86.66153943  -362.59188097    -2.81410000    -0.10341627   -64.89468816  -271.51937526     0.94390000     0.03468769    21.76685127    91.07250571
C     -2.68651400     1.73727900     0.40454800
C     -1.37979200     1.42353800     0.70316900
C     -3.59703200     0.70095300     0.06283400
C     -0.86729700     0.11206000     0.50339500
C     -3.13872700    -0.66140100     0.02409600
C     -1.71501500    -0.92932400    -0.00162200
C     -4.95139300     1.00374000    -0.26760500
C     -4.16643600    -1.67673600     0.01375700
C      0.51073200    -0.17992600     0.75922300
C     -1.14495000    -2.15763800    -0.51224600
C     -5.85244800     0.01814800    -0.58945400
C     -5.48394500    -1.34277000    -0.41159700
C      0.24123100    -2.42288600    -0.19065800
C      1.02035000    -1.41906000     0.47917900
C     -6.40627000    -2.40483200    -0.66219000
C     -3.96634400    -3.00392200     0.55317200
C     -6.09007900    -3.69246500    -0.37930900
N     -4.90514900    -3.98852700     0.29693100
B     -1.86759200    -3.16562900    -1.43322700
C      0.85970100    -3.63715800    -0.56714700
C     -1.11491300    -4.41837700    -1.79591800
C      0.19324000    -4.60578500    -1.32798200
C     -4.71723000    -5.29090300     0.72999000
C     -2.90038800    -3.34789600     1.42764000
C     -3.66181000    -5.63004700     1.52842700
C     -2.75750900    -4.62227500     1.93215900
H     -2.21627000    -2.55608600     1.71787500
H     -1.93746200    -4.85176000     2.61341000
H     -5.48759300    -5.99366800     0.41626900
H     -3.55315400    -6.66395100     1.85727300
H     -3.04712500     2.76739600     0.45287100
H     -0.69092500     2.20224000     1.04294700
H     -2.98270200    -2.95024500    -1.87279400
H     -1.52772100    -5.20602400    -2.43971500
H      1.90586600    -3.79331800    -0.28520700
H      0.75081500    -5.51575300    -1.58817900
H     -7.37500900    -2.18391700    -1.11383600
H     -6.73210300    -4.54579500    -0.58890900
H      1.14080000     0.60387000     1.18887500
H      2.06553200    -1.64499500     0.71321200
H     -5.25044600     2.05476400    -0.30000100
H     -6.86434500     0.25943400    -0.92180500
