036
BNPAH_000006_PAH16   C20_H14_N01_B01  -849.65288178     0.00000000     8.69415000  4468.57634837     7.12112969   193.77580906 18696.52344158    30.60668732     0.04877486     1.32723157   128.05837975    -4.85340000    -0.17835916  -111.92206372  -468.28191461    -2.80150000    -0.10295323   -64.60412526  -270.30366007     2.05190000     0.07540593    47.31793847   197.97825454
B      5.03399900     1.55444500     0.00000100
C      4.94990200     0.04701300     0.00000100
C      3.71683100    -0.61938100     0.00000000
C      2.46582600     0.11288100    -0.00000000
C      2.48564000     1.53229400    -0.00000000
C      3.66903800     2.25202400     0.00000000
N      1.24623400    -0.60655300    -0.00000100
C      1.22995700    -2.01437300    -0.00000100
C      2.46732300    -2.72080900    -0.00000000
C      3.65405800    -2.05161500    -0.00000000
C      0.00439000    -2.68394900    -0.00000000
C     -1.22858700    -2.02715500    -0.00000000
C     -2.48241300    -2.72157500     0.00000000
C     -3.65785100    -2.02819500     0.00000000
C     -3.68443800    -0.58695800     0.00000000
C     -4.91678800     0.10872800     0.00000100
C     -4.95609300     1.49465600     0.00000000
C     -3.75303200     2.22465100    -0.00000000
C     -2.53165800     1.56307100    -0.00000100
C     -2.46141000     0.15205500    -0.00000000
C     -1.19969300    -0.59160600    -0.00000100
C      0.03408100     0.04238700    -0.00000100
H      6.07889200     2.16617000     0.00000100
H      5.82588900    -0.61400800     0.00000100
H      1.54593700     2.08917700    -0.00000100
H      3.55340400     3.34313400     0.00000000
H      2.41758900    -3.81045500    -0.00000000
H      4.59727500    -2.60325600     0.00000000
H      0.03961500    -3.77496100    -0.00000000
H     -2.47648800    -3.81398300     0.00000000
H     -4.61240800    -2.56018700     0.00000100
H     -5.84458900    -0.46913400     0.00000100
H     -5.91481100     2.01804800     0.00000100
H     -3.77604300     3.31662600    -0.00000000
H     -1.61712600     2.15849000    -0.00000100
H      0.09754900     1.12232100    -0.00000100
