034
BNPAH_000076_PAH31   C20_H12_N01_B01  -848.48450712     0.00000000    11.69044000  4362.06793909     6.95139774   189.15716733 18250.89225715    30.29213847     0.04827360     1.31359144   126.74230736    -4.19150000    -0.15403479   -96.65828699  -404.41827278    -2.63510000    -0.09683814   -60.76685007  -254.24850068     1.55640000     0.05719665    35.89143693   150.16977210
C     -1.84100400    -4.09044400    -0.00000000
C     -3.05227100    -3.38574500    -0.00000000
C     -3.10571100    -1.98354600    -0.00000000
B     -4.46163400    -1.22646400    -0.00000000
C     -4.37381900     0.26894000     0.00000000
C     -3.12533200     0.91091200     0.00000000
C     -3.03703000     2.34868200     0.00000000
C     -1.84865500     3.03010500     0.00000000
C     -0.60591500     2.33204200     0.00000000
C      0.63075500     3.01694000     0.00000000
C      1.84142000     2.35014300    -0.00000000
C      1.85412800     0.93200100     0.00000000
C      3.05590400     0.20534900    -0.00000000
N      3.02024600    -1.14027000    -0.00000000
C      1.88309500    -1.87521000     0.00000000
C      0.63147100    -1.24001200     0.00000000
C     -0.61771300    -1.97898800     0.00000000
C     -0.64035700    -3.38976500     0.00000000
C     -1.86101700    -1.25728600     0.00000000
C     -1.86893100     0.17479600     0.00000000
C     -0.63409900     0.89335500     0.00000000
C      0.60888100     0.19330900     0.00000000
H     -1.83319500    -5.18329800    -0.00000000
H     -3.99580000    -3.93915900    -0.00000000
H     -5.49889300    -1.85462100    -0.00000000
H     -5.24548300     0.93496600    -0.00000000
H     -3.97874100     2.90454200     0.00000000
H     -1.83579700     4.12354100    -0.00000000
H      0.61589700     4.11028200    -0.00000000
H      2.78681600     2.89662900    -0.00000000
H      4.03891700     0.67492800    -0.00000000
H      3.90566100    -1.64140600    -0.00000000
H      2.01852900    -2.95345400     0.00000000
H      0.29365700    -3.95608900     0.00000000
