038
BNPAH_000144_PAH36   C22_H14_N01_B01  -925.84013012     0.00000000    12.16687000  4814.58596060     7.67253111   208.78020583 20144.22765915    30.47206304     0.04856032     1.32139371   127.49511176    -4.06660000    -0.14944479   -93.77802455  -392.36725470    -3.05780000    -0.11237208   -70.51454371  -295.03285089     1.00880000     0.03707272    23.26348083    97.33440381
C      6.74572300     1.10912500     0.00000100
C      5.57340500     1.83030300     0.00000000
C      4.31416600     1.17412500    -0.00000000
C      4.28770800    -0.27954700    -0.00000000
C      5.52528900    -0.95182300    -0.00000000
N      6.68123200    -0.26252000     0.00000000
C      3.06356300    -0.95568700    -0.00000100
C      1.82014900    -0.28682800    -0.00000100
C      0.58131800    -1.01519000    -0.00000000
B      0.51271400    -2.54726100    -0.00000100
C     -0.87408800    -3.17757800    -0.00000000
C     -1.98417400    -2.36450200     0.00000000
C     -1.90908800    -0.93355900     0.00000000
C     -3.11673500    -0.17448300     0.00000100
C     -3.11658400     1.19613500     0.00000100
C     -1.87904500     1.90974900     0.00000000
C     -1.85365900     3.32176000    -0.00000000
C     -0.65078100     4.01842200    -0.00000000
C      0.55810900     3.31905400    -0.00000100
C      0.59302900     1.91063600    -0.00000000
C      1.85355100     1.17466800    -0.00000000
C      3.08493100     1.84530300    -0.00000000
C     -0.64016800     1.17801000    -0.00000000
C     -0.64511500    -0.26108700    -0.00000000
H      7.74182500     1.54781200     0.00000100
H      5.62134600     2.92062000     0.00000100
H      5.60120100    -2.03967400    -0.00000000
H      7.55307200    -0.78574200     0.00000100
H      3.05450100    -2.04571900    -0.00000100
H      1.50451500    -3.24812800    -0.00000100
H     -1.04435000    -4.26093300    -0.00000000
H     -2.99650500    -2.79050200     0.00000100
H     -4.06448500    -0.72122500     0.00000100
H     -4.05170400     1.76163200     0.00000100
H     -2.80367800     3.86320100     0.00000000
H     -0.64588300     5.11102800    -0.00000100
H      1.48534200     3.89269800    -0.00000100
H      3.10997100     2.93518600    -0.00000000
