042
BNPAH_000304_PAH39   C24_H16_N01_B01 -1003.16797178     0.00000000    18.67570000  5249.67092505     8.36588313   227.64727544 21964.62315041    30.52134259     0.04863886     1.32353067   127.70129740    -3.80110000    -0.13968785   -87.65544905  -366.75039882    -3.30030000    -0.12128379   -76.10672660  -318.43054411     0.50080000     0.01840406    11.54872244    48.31985471
C      2.72771400     0.36720300    -0.00000200
C      2.68298800    -1.05179200    -0.00000100
C      1.48321700    -1.70494400    -0.00000000
N      0.26629600    -1.03303800     0.00000000
C      0.28547700     0.37239400    -0.00000100
C     -0.94276600     1.06253700    -0.00000000
C     -2.13881600     0.38640400     0.00000100
C     -2.18902100    -1.03685700     0.00000100
C     -3.43930500    -1.76061300     0.00000200
C     -4.69246700    -1.10087400     0.00000200
C     -5.87513300    -1.81198300     0.00000200
C     -5.93420700    -3.23005300     0.00000100
C     -4.68435300    -3.94865300     0.00000200
C     -4.71975800    -5.36365700     0.00000100
C     -5.93054600    -6.04086100    -0.00000000
C     -7.18641000    -5.39574500    -0.00000100
B     -8.50425900    -6.19084000    -0.00000200
C     -9.77567400    -5.36029100    -0.00000200
C     -9.67359900    -3.96721600    -0.00000100
C     -8.44451000    -3.28304200     0.00000000
C     -7.19650600    -3.95262100     0.00000000
C     -3.43967500    -3.19935600     0.00000200
C     -2.18528500    -3.84289800     0.00000200
C     -0.97623800    -3.16347700     0.00000200
C     -0.95410700    -1.75450900     0.00000100
C      1.52975200     1.04606800    -0.00000200
H      3.68011100     0.89830900    -0.00000300
H      3.59673100    -1.64738700    -0.00000100
H      1.43052500    -2.78716600     0.00000100
H     -0.91005000     2.15244200    -0.00000100
H     -3.06625200     0.95669400     0.00000100
H     -4.74689900    -0.01174100     0.00000200
H     -6.80746800    -1.24701100     0.00000200
H     -3.79345300    -5.94021400     0.00000100
H     -5.91987200    -7.13540900    -0.00000100
H     -8.48703900    -7.40509700    -0.00000300
H    -10.78809300    -5.78259000    -0.00000400
H    -10.58000500    -3.34763100    -0.00000100
H     -8.47852000    -2.19143700     0.00000100
H     -2.14516300    -4.93202800     0.00000200
H     -0.06589900    -3.75769600     0.00000200
H      1.49624800     2.13667500    -0.00000300
