038
BNPAH_000079_PAH65   C22_H14_N01_B01  -925.83953138     0.00000000     6.06286000  4814.21024468     7.67193237   208.76391325 20142.65566374    30.46968509     0.04855653     1.32129059   127.48516242    -4.54390000    -0.16698525  -104.78482411  -438.41970408    -2.84820000    -0.10466942   -65.68105285  -274.80952512     1.69570000     0.06231583    39.10377126   163.61017897
C     -2.78413700     2.77287400    -0.00000000
C     -3.95556900     2.03937000    -0.00000000
C     -1.47828800     2.19683800    -0.00000000
B     -3.89351800     0.52388300    -0.00000000
C     -2.47293100    -0.07527000     0.00000000
C     -1.30990300     0.77226100    -0.00000000
C     -2.27894300    -1.47107300     0.00000000
C     -0.01026000     0.18988700    -0.00000000
C     -1.00708900    -2.04062000     0.00000000
C      0.11373200    -1.20836300     0.00000000
N     -0.32814800     3.02988500    -0.00000000
C      0.97634900     2.49575300    -0.00000000
C      1.16028500     1.06881300    -0.00000000
C     -0.46634500     4.39606600     0.00000000
C      0.60846400     5.26245800     0.00000000
C      1.90303600     4.77275200     0.00000000
C      2.10817500     3.37679900    -0.00000000
C      3.45176300     2.82121100    -0.00000000
C      2.45859900     0.57725300    -0.00000000
C      3.60852900     1.40357600    -0.00000000
C      4.61769500     3.62759600     0.00000000
C      4.91766200     0.84568600    -0.00000000
C      5.88256100     3.06264100    -0.00000000
C      6.03462800     1.65781900    -0.00000000
H      5.02261400    -0.24218000    -0.00000000
H      4.53452000     4.71489500     0.00000000
H      7.03460300     1.21769300    -0.00000000
H      6.76431600     3.70721400     0.00000000
H     -2.88517400     3.85889400    -0.00000000
H     -4.88493900     2.61929000    -0.00000000
H     -4.86617300    -0.19597600    -0.00000000
H      2.61993800    -0.50025800    -0.00000000
H     -1.47790700     4.77744400     0.00000000
H      0.40404600     6.33401400     0.00000100
H      2.74705000     5.45915400     0.00000000
H     -3.16356100    -2.11370000     0.00000000
H     -0.87863600    -3.12556300     0.00000000
H      1.10332400    -1.66698400     0.00000000
