042
BNPAH_000170_PAH33   C24_H16_N01_B01 -1003.17187231     5.17600000    15.43969000  5252.11854327     8.36978366   227.75341421 21974.86398504    30.53557293     0.04866153     1.32414776   127.76083714    -3.92330000    -0.14417862   -90.47344802  -378.54090650    -3.31630000    -0.12187178   -76.47569537  -319.97430944     0.60700000     0.02230684    13.99775264    58.56659706
C      1.59234300    -1.50681600    -0.85571200
C      0.32780600    -2.04943900    -1.17257000
C     -0.82650800    -1.35397900    -0.83647800
C     -0.79467500    -0.10176500    -0.17025500
C      0.50259100     0.51452600     0.03826700
C      0.62695600     1.85407200     0.48715400
B     -0.58421000     2.72853900     0.64336800
C     -1.93960900     2.02151200     0.45882600
C     -3.15996600     2.72415200     0.63600000
C     -4.39927200     2.12829800     0.51266900
C     -4.50555800     0.71790900     0.35952800
C     -3.27870400    -0.05099100     0.36196200
C     -3.37570200    -1.44237000     0.68660800
C     -4.58226600    -2.06898900     0.87016400
C     -5.80373800    -1.37808900     0.63253500
C     -5.76664300     0.01786900     0.29298900
C     -7.01212800     0.63704900    -0.11856400
C     -7.11768500     1.87828600    -0.79026800
C     -8.35856400     2.43111900    -1.14600900
C     -9.51895100     1.74298100    -0.85712700
N     -9.42472800     0.51618800    -0.28165300
C     -8.23927000    -0.09732300     0.06459400
C     -8.25125800    -1.42052600     0.53665900
C     -7.04035800    -2.04933000     0.77236800
C     -2.01019800     0.61450600     0.19713600
C      1.66760300    -0.25419100    -0.27949900
H      2.50398900    -2.05814400    -1.10121100
H      0.25340300    -3.00411200    -1.69958700
H     -2.45545200    -1.99568700     0.87244100
H      1.65734500     2.20386200     0.63103500
H     -0.54405900     3.90854900     0.92296300
H     -3.10348500     3.79155400     0.86926100
H     -6.20895600     2.40827700    -1.06894200
H     -1.78890700    -1.76939600    -1.14081800
H     -4.62101800    -3.11136000     1.19568500
H     -5.29700000     2.73042300     0.65640900
H     -8.41482100     3.39560100    -1.65096400
H    -10.52285100     2.10544400    -1.07625800
H    -10.27837700    -0.01255100    -0.12065900
H     -9.19890900    -1.94956500     0.66388300
H     -7.02930500    -3.09651500     1.08462200
H      2.64226500     0.20042300    -0.08055400
