042
BNPAH_000503_PAH67   C24_H16_N01_B01 -1003.16954033     5.91700000    13.94883000  5250.65520167     8.36745168   227.68995771 21968.74136379    30.52706513     0.04864797     1.32377882   127.72524050    -4.15180000    -0.15257584   -95.74278324  -400.58780506    -3.40190000    -0.12501752   -78.44967828  -328.23345393     0.74990000     0.02755832    17.29310495    72.35435113
C     -2.44595600     3.64393600     0.95644900
C     -1.20095900     3.23556600     1.41681800
N     -3.18141900     2.77392500     0.23185300
C     -0.71603300     1.97916800     1.06003500
C     -2.78200200     1.50850400    -0.11385600
C     -1.45276100     1.09008400     0.23414100
C     -1.00644600    -0.23542900    -0.15155100
C     -3.69824500     0.63629100    -0.74918500
C     -3.32780800    -0.67839000    -0.91116700
C     -2.03332400    -1.16099800    -0.56361200
C      0.35119100    -0.71125300    -0.01925300
C     -1.76485900    -2.55033000    -0.58794100
C     -0.54400300    -3.01507300    -0.13663700
C      0.51640600    -2.13023900     0.17164900
C      1.52488600     0.12696600    -0.06342100
C      2.77184100    -0.37496600     0.51598300
C      1.77520600    -2.62513800     0.64326000
C      2.81888800    -1.76932700     0.87122600
C      1.51081800     1.39162800    -0.69503400
C      2.59153500     2.27910300    -0.65413300
B      3.88806900     1.86547400     0.09794700
C      3.89696400     0.44593600     0.64474200
C      5.01692900     2.91082800     0.12140100
C      2.53941500     3.55942500    -1.30003100
C      4.82224500     4.11070700    -0.52612700
C      3.60506600     4.42826600    -1.22764700
H      5.98258300     2.75719100     0.62098800
H      5.60762100     4.87801300    -0.53528400
H      3.53614000     5.40299900    -1.72210800
H      1.63803900     3.85849000    -1.85308000
H     -2.88698600     4.62131200     1.14947300
H     -4.11581600     3.05428600    -0.05996200
H     -0.60654600     3.90548900     2.03782000
H      0.26542600     1.66983200     1.41680500
H     -4.69417900     0.98862600    -1.02787600
H     -4.05033100    -1.39430700    -1.31196900
H     -2.54982000    -3.24065200    -0.90514700
H     -0.36276900    -4.08994600    -0.05204500
H      3.75852000    -2.15284400     1.27985600
H      1.87406500    -3.69676500     0.83510700
H      0.60490800     1.67544700    -1.24761400
H      4.77984000    -0.02655400     1.09718800
