018
BNPAH_001299_PAH01   C04_H08_N03_B03  -395.91679682     0.00000000     2.78051000  1946.64764797     3.10218049    84.41463086  8144.77375911    28.62717129     0.04562030     1.24139163   119.77608468    -4.63170000    -0.17021184  -106.80954023  -446.89111631    -2.60230000    -0.09563276   -60.01046409  -251.08378176     2.02940000     0.07457908    46.79907614   195.80733455
N     -0.00000000     1.26501300     1.46704600
B     -0.00000000     2.52136100     0.77298700
C      0.00000000     2.43344800    -0.74819800
N      0.00000000     1.23516200    -1.36771300
C     -0.00000000    -1.19418000    -1.49755300
B     -0.00000000    -2.51795500    -0.78062000
C      0.00000000    -2.45200200     0.74577600
N      0.00000000    -1.28089100     1.43518200
B     -0.00000000     0.00939100     0.77968900
C     -0.00000000     0.00080500    -0.75726100
H     -0.00000000     1.28699600     2.48583300
H     -0.00000000     3.56483200     1.37356600
H      0.00000000     3.28737000    -1.42960500
H      0.00000000     1.22272500    -2.39098700
H     -0.00000000    -1.10687200    -2.59584700
H     -0.00000000    -3.59177800    -1.33564800
H      0.00000000    -3.33963900     1.39094900
H      0.00000000    -1.34378800     2.45240400
