032
BNPAH_000234_PAH21   C18_H12_N01_B01  -772.30767390     0.00000000    10.98803000  4022.59391538     6.41041145   174.43618050 16830.53294195    30.47419633     0.04856372     1.32148622   127.50403744    -4.53130000    -0.16652220  -104.49426121  -437.20398889    -2.51240000    -0.09232900   -57.93732083  -242.40975033     2.01890000     0.07419321    46.55694038   194.79423856
C      5.56650900    -1.94417300     0.00000000
C      4.39683900    -2.63786300     0.00000000
C      3.12136400    -1.96286400    -0.00000000
C      3.14314500    -0.49979500    -0.00000000
C      4.37031900     0.13123300    -0.00000000
N      5.54313500    -0.56625300     0.00000000
C      1.87923900     0.23594300    -0.00000000
C      1.81556300     1.64325000    -0.00000000
C      0.59339600     2.30582900    -0.00000000
C     -0.63026900     1.61372100    -0.00000000
C     -1.87776500     2.33995000     0.00000000
C     -3.10784600     1.73123500     0.00000000
B     -3.18593700     0.19858000     0.00000000
C     -1.84448200    -0.55301000    -0.00000000
C     -1.76606100    -1.96149500    -0.00000000
C     -0.55491100    -2.64570100    -0.00000000
C      0.66983900    -1.94635300    -0.00000000
C      1.91780000    -2.63681800    -0.00000000
C      0.65053900    -0.50242700    -0.00000000
C     -0.60951700     0.17860200    -0.00000000
H      6.55167600    -2.41003100     0.00000000
H      4.42502500    -3.72863200     0.00000000
H      4.47726900     1.21507000    -0.00000000
H      6.41814300    -0.05429000     0.00000000
H      2.73027200     2.23962000    -0.00000000
H      0.57871300     3.39973200    -0.00000000
H     -1.78904400     3.43454500     0.00000000
H     -3.98906100     2.38350200     0.00000000
H     -4.23318600    -0.41058800     0.00000000
H     -2.69988900    -2.53179900    -0.00000000
H     -0.53499300    -3.73887300    -0.00000000
H      1.91265700    -3.72968000    -0.00000000
