042
BNPAH_000377_PAH73   C24_H16_N01_B01 -1003.19903013     0.00000000    11.37967000  5269.16033123     8.39694148   228.49241607 22046.16682587    30.63465309     0.04881943     1.32844428   128.17538853    -4.01500000    -0.14754853   -92.58810027  -387.38861152    -3.26680000    -0.12005269   -75.33419825  -315.19828546     0.74820000     0.02749584    17.25390202    72.19032606
C      8.05423400    -0.28019300     0.00000100
N      6.82696800    -0.85555000     0.00000000
C      5.63611200    -0.16239800    -0.00000000
C      4.41129500    -0.81998000    -0.00000000
C      3.20310500    -0.08942400    -0.00000100
C      1.94287200    -0.72030600    -0.00000100
C      0.75076400     0.00595000    -0.00000100
C      0.77235600     1.47048500    -0.00000100
C      2.03617400     2.08746500    -0.00000100
C      3.24262300     1.37042700    -0.00000100
C      4.50772900     2.00839800    -0.00000000
C      5.70699000     1.29056200    -0.00000000
C      6.99972700     1.88520000     0.00000000
C      8.15716500     1.10898300     0.00000100
C     -0.46127100     2.21449000    -0.00000000
B     -0.55125400     3.74167300    -0.00000100
C     -1.95763000     4.37987100    -0.00000000
C     -2.17001400     5.77665400    -0.00000000
C     -3.44962900     6.32931700    -0.00000000
C     -4.57824500     5.48416000     0.00000100
C     -4.41522600     4.10615800     0.00000100
C     -3.11605700     3.52959500     0.00000000
C     -2.94838000     2.11474800     0.00000000
C     -1.70066400     1.47612100     0.00000000
C     -1.68359800     0.03548500     0.00000000
C     -0.51407200    -0.66998300    -0.00000000
H      8.90927500    -0.95504800     0.00000100
H      6.76842600    -1.87108500     0.00000000
H      4.37676000    -1.91351300    -0.00000000
H      1.89682600    -1.81336600    -0.00000000
H      2.07951200     3.17713200    -0.00000100
H      4.54812200     3.10028500    -0.00000000
H      7.07385200     2.97492800     0.00000000
H      9.14608500     1.56798600     0.00000100
H      0.41985800     4.46630700    -0.00000100
H     -1.29752300     6.43704700    -0.00000100
H     -3.58289200     7.41447400    -0.00000000
H     -5.58282000     5.91584200     0.00000100
H     -5.29052400     3.44942000     0.00000100
H     -3.84766500     1.49005500     0.00000100
H     -2.64063900    -0.49497600     0.00000000
H     -0.52105800    -1.76341600    -0.00000000
