042
BNPAH_000537_PAH73   C24_H16_N01_B01 -1003.17319166     0.00000000    14.96245000  5252.94644597     8.37110301   227.78931547 21978.32792994    30.54038631     0.04866920     1.32435649   127.78097632    -4.48200000    -0.16471046  -103.35737619  -432.44726198    -3.26180000    -0.11986894   -75.21889551  -314.71585880     1.22020000     0.04484152    28.13848068   117.73140318
C      8.05787700    -0.04429100    -0.00000100
C      6.88452500    -0.75660000    -0.00000200
C      5.61108100    -0.11766300    -0.00000100
C      4.39366700    -0.80309200    -0.00000100
C      3.15255100    -0.14574800     0.00000000
C      1.90869800    -0.79884900     0.00000000
C      0.69876400    -0.09634800     0.00000100
C      0.68797600     1.37421800     0.00000100
C      1.93711700     2.01679200     0.00000100
C      3.15466600     1.31117100     0.00000100
C      4.39150600     1.96355100     0.00000100
N      5.58168700     1.29683000     0.00000100
C      6.78111000     2.00855100     0.00000100
C      7.99058400     1.37918100    -0.00000000
C     -0.57213800     2.08039900     0.00000100
C     -0.63121100     3.49542300     0.00000100
C     -1.82871400     4.22122800     0.00000000
C     -1.83239900     5.65359800    -0.00000000
C     -3.02020900     6.35438300    -0.00000100
C     -4.30112500     5.70489300    -0.00000100
C     -4.44384900     4.33122400    -0.00000100
B     -3.17884200     3.46614200     0.00000000
C     -3.06618100     1.94469200     0.00000000
C     -1.81464200     1.31736800     0.00000100
C     -1.73070500    -0.11509900     0.00000100
C     -0.54300900    -0.79920700     0.00000100
H      9.02311600    -0.55195700    -0.00000200
H      6.88503800    -1.84774100    -0.00000300
H      4.43210400    -1.89391200    -0.00000200
H      1.88282300    -1.89165700    -0.00000000
H      1.98422200     3.10616300     0.00000200
H      4.46650100     3.05135300     0.00000200
H      6.66731800     3.09208600     0.00000200
H      8.89601500     1.98728600     0.00000000
H      0.31157200     4.05628500     0.00000100
H     -0.88282400     6.20564700    -0.00000000
H     -2.99679700     7.44872900    -0.00000200
H     -5.18306000     6.35858900    -0.00000200
H     -5.46536300     3.92939800    -0.00000100
H     -3.93320100     1.26990800     0.00000000
H     -2.67295900    -0.67113400     0.00000100
H     -0.52562100    -1.89181500     0.00000000
