042
BNPAH_000549_PAH72   C24_H16_N01_B01 -1003.20078242     0.00000000    12.27889000  5270.25991322     8.39869378   228.54009846 22050.76747691    30.64104601     0.04882961     1.32872150   128.20213651    -4.53720000    -0.16673903  -104.63031844  -437.77325235    -2.76670000    -0.10167435   -63.80161818  -266.94597049     1.77050000     0.06506468    40.82870026   170.82728187
C      2.76563900     0.29069100    -0.00000200
C      2.80428500    -1.13827000    -0.00000100
C      1.62805800    -1.83761700    -0.00000000
C      0.35657500    -1.17846700     0.00000000
C     -0.86163300    -1.84637300     0.00000100
C     -2.11843000    -1.19438200     0.00000100
C     -2.05858700     0.26493800     0.00000100
C     -3.27829600     1.02269000     0.00000100
C     -4.47670400     0.37101900     0.00000100
C     -4.60403100    -1.06699700     0.00000200
C     -3.37735200    -1.86483900     0.00000200
C     -3.46792100    -3.28445700     0.00000200
C     -4.67834400    -3.96965000     0.00000200
C     -4.72546300    -5.41156900     0.00000200
C     -5.91392300    -6.08651500     0.00000100
C     -7.21513800    -5.43906100    -0.00000000
C     -8.38787800    -6.22973200    -0.00000100
C     -9.64807800    -5.63987500    -0.00000200
C     -9.76713300    -4.23937800    -0.00000200
C     -8.61840100    -3.44986900    -0.00000100
C     -7.32226100    -4.01041800     0.00000000
B     -6.00643800    -3.17794200     0.00000100
C     -5.86379000    -1.66185300     0.00000200
C     -0.83580900     0.90359500    -0.00000000
N      0.36445200     0.23063900    -0.00000100
C      1.56256700     0.93033500    -0.00000200
H      3.68123800     0.88252000    -0.00000300
H      3.76246700    -1.66019000    -0.00000100
H      1.61715700    -2.92852000     0.00000100
H     -0.80954600    -2.93424200     0.00000200
H     -3.22628300     2.11403900     0.00000100
H     -5.40418900     0.95086300     0.00000200
H     -2.53770400    -3.86563000     0.00000200
H     -3.78843000    -5.98353700     0.00000200
H     -5.90772000    -7.18147000     0.00000100
H     -8.29573800    -7.32030000    -0.00000200
H    -10.54465900    -6.26593000    -0.00000300
H    -10.75699600    -3.77476500    -0.00000300
H     -8.72312800    -2.36053300    -0.00000000
H     -6.71298100    -0.96559200     0.00000200
H     -0.75651900     1.99128300    -0.00000100
H      1.45863600     2.01533900    -0.00000200
