018
BNPAH_002099_PAH01   C02_H08_N04_B04  -398.99962736     0.00000000    12.07477000  1655.41644535     2.63807403    71.78565073  6926.26240734    24.34435949     0.03879521     1.05567133   101.85680011    -4.16280000    -0.15298008   -95.99644926  -401.64914372    -2.74480000    -0.10086954   -63.29659218  -264.83294170     1.41800000     0.05211054    32.69985708   136.81620203
B      0.00000000     1.11210400     1.56518400
B      0.00000000     2.67190700     0.82530300
B     -0.00000000     2.70784600    -0.90114500
B      0.00000000     1.19783800    -1.60512200
N      0.00000000    -1.26505500    -1.31034000
N     -0.00000000    -2.45249300    -0.65192500
C     -0.00000000    -2.46611900     0.69182000
N     -0.00000000    -1.28912500     1.33415300
N      0.00000000    -0.04865900     0.73018800
C      0.00000000    -0.01136700    -0.71975800
H      0.00000000     0.79758200     2.74485500
H     -0.00000000     3.64566300     1.55639400
H     -0.00000000     3.74996100    -1.53127400
H      0.00000000     0.87304500    -2.79004800
H      0.00000000    -1.28828100    -2.32454400
H     -0.00000000    -3.30142200    -1.20314900
H     -0.00000000    -3.40137000     1.24045100
H     -0.00000000    -1.23205500     2.34895700
