038
BNPAH_000172_PAH34   C22_H14_N01_B01  -925.83479231     0.00700000     3.08436000  4811.23643181     7.66719330   208.63495652 20130.21323069    30.45086349     0.04852654     1.32047441   127.40641284    -4.75310000    -0.17467320  -109.60909076  -458.60443572    -3.18390000    -0.11700617   -73.42247882  -307.19965136     1.56920000     0.05766704    36.18661194   151.40478436
C     -6.40730700     0.32996000     0.00540800
C     -6.49579300    -1.09129500    -0.01064900
C     -5.35824600    -1.91506800    -0.02472600
C     -5.32579800    -3.34026200    -0.04145400
C     -4.10402700    -4.00549600    -0.05423600
C     -2.83429800    -3.35511600    -0.05192600
C     -2.71177300    -1.96209700    -0.03617800
B     -4.01397600    -1.20142500    -0.02187800
C     -3.97019900     0.31148100    -0.00456600
C     -5.20263100     1.02988800     0.00865300
C     -2.71340200     0.89783800    -0.00288400
N     -1.51934000     0.22885400    -0.01542600
C     -0.29564800     0.99711000    -0.01112700
C     -0.29193700     2.39534700     0.00670900
C      0.91443500     3.12131700     0.01011300
C      2.13729800     2.48189500    -0.00386900
C      2.18697700     1.06573400    -0.02186000
C      3.42479100     0.35954300    -0.03651900
C      3.45390400    -1.02297100    -0.05383500
C      2.25547900    -1.76067700    -0.05722700
C      1.01741000    -1.10998200    -0.04329300
C     -0.22402900    -1.81441100    -0.04590100
C     -1.45704400    -1.21804400    -0.03296200
C      0.96152900     0.31840500    -0.02542300
H     -7.34112400     0.89879700     0.01570600
H     -7.50231200    -1.53042800    -0.01172200
H     -6.25077200    -3.92966100    -0.04454600
H     -4.10395500    -5.09916200    -0.06697500
H     -1.95615500    -4.01241600    -0.06322700
H     -5.22377400     2.12646400     0.02139300
H      2.28187900    -2.85280100    -0.07081200
H      3.06918200     3.05149700    -0.00115400
H     -1.21047700     2.97676600     0.01867200
H      0.86335700     4.21233900     0.02422100
H      4.35311900     0.93544500    -0.03373900
H      4.41145900    -1.54901800    -0.06490500
H     -0.19749600    -2.90412400    -0.05922600
H     -2.61738800     1.98186200     0.00910100
