042
BNPAH_000036_PAH33   C24_H16_N01_B01 -1003.17505611     2.83400000    10.01276000  5254.11640556     8.37296746   227.84004972 21983.22304086    30.54718840     0.04868004     1.32465145   127.80943627    -4.47920000    -0.16460757  -103.29280666  -432.17710305    -2.93980000    -0.10803566   -67.79339905  -283.64758161     1.53940000     0.05657191    35.49940761   148.52952144
C      1.79556100    -1.56316700     0.03323800
B      0.57164100    -2.35676500     0.49548900
C     -0.73531500    -1.59191600     0.49620500
C     -0.80865500    -0.23338400     0.11636200
C      0.42942500     0.48848500    -0.16230200
C      0.43117400     1.89752900    -0.25990600
C     -0.70932700     2.65156500    -0.05669200
C     -1.95237300     1.99568700     0.09192100
C     -3.14310100     2.69315300     0.41309400
C     -4.35529800     2.05175100     0.47614500
C     -4.48965800     0.70124100     0.07133900
N     -3.29794800    -0.00842300    -0.15022900
C     -3.37756000    -1.31858300    -0.61199700
C     -4.54318400    -2.01019700    -0.59650300
C     -5.76862500    -1.38084500    -0.22852600
C     -5.76423400     0.03001600    -0.07095900
C     -7.05743700     0.70801100    -0.04278700
C     -7.25931800     2.08842800    -0.31865200
C     -8.51513200     2.67212200    -0.24918600
C     -9.64559500     1.90713800     0.10166700
C     -9.50332500     0.54534200     0.29076200
C     -8.23680000    -0.08462000     0.18081800
C     -8.15013400    -1.51160800     0.20240400
C     -6.96597700    -2.13823200    -0.07476400
C     -2.01822500     0.56566400     0.01753600
C      1.67088900    -0.21493100    -0.23274700
H      2.80308300    -1.99027000    -0.04808200
H      0.63224500    -3.51561100     0.84872100
H     -2.43787800    -1.73945700    -0.95787200
H      1.38862200     2.39713800    -0.43378600
H     -0.67678800     3.74190700    -0.01406000
H     -3.07625700     3.75583400     0.65917800
H     -6.42454800     2.70147300    -0.65238200
H     -1.66179300    -2.07037300     0.83090200
H     -4.53923500    -3.05306800    -0.91777600
H     -5.23427400     2.57784200     0.83396100
H     -8.62674300     3.73248400    -0.48711400
H    -10.62811900     2.37790000     0.17827300
H    -10.37646600    -0.07950900     0.49518900
H     -9.06152600    -2.08937200     0.37350900
H     -6.90939600    -3.22581400    -0.15771700
H      2.54877100     0.39543200    -0.48267500
