038
BNPAH_000367_PAH62   C22_H14_N01_B01  -925.81154489     0.01100000     7.11866000  4796.64845383     7.64394587   208.00236193 20069.17713082    30.35853452     0.04837940     1.31647065   127.02010843    -4.54890000    -0.16716899  -104.90012685  -438.90213075    -3.08970000    -0.11354438   -71.25017519  -298.11073301     1.45920000     0.05362461    33.64995166   140.79139774
C      4.68603900     2.00604800    -0.00101900
C      4.77491700     0.60483300    -0.00256000
C      3.64658400    -0.20563700    -0.00234100
C      2.31446900     0.29767800    -0.00042600
C      2.25185400     1.73702100     0.00057200
C      3.42538200     2.54817900     0.00043100
C      1.02396200     2.39781100     0.00138600
C     -0.16802000     1.69922800     0.00102000
C     -1.38948600     2.43584600     0.00127800
C     -2.58796200     1.78444300     0.00068900
C     -2.65622600     0.36716900    -0.00008900
C     -1.43373900    -0.40110400    -0.00016500
C     -1.51447100    -1.83106400    -0.00078200
C     -2.77894200    -2.48555700    -0.00146700
C     -3.99540100    -1.82804700    -0.00154600
B     -4.01936000    -0.31133800    -0.00080200
C     -0.27795900    -2.56118600    -0.00025400
C     -0.31854100    -3.98669100    -0.00018400
C      0.80258200    -4.78339500     0.00103500
C      2.04971700    -4.15087000     0.00241700
C      2.12931400    -2.76758000     0.00223000
C      1.00235100    -1.90683200     0.00058200
N      1.07978700    -0.45616100     0.00014800
C     -0.15446400     0.24760500     0.00031800
H      5.57956400     2.63282700    -0.00120500
H      5.75072700     0.11436300    -0.00405300
H      3.13334800    -2.40469100     0.00372100
H      3.27640700     3.63014200     0.00137400
H      1.00454800     3.48935700     0.00197000
H     -1.31804400     3.52560100     0.00183500
H     -3.52599200     2.34505900     0.00078700
H     -2.78720800    -3.57674300    -0.00190100
H     -4.89040700    -2.46127500    -0.00209200
H     -5.03333800     0.35125400    -0.00074800
H     -1.29168100    -4.46940500    -0.00096400
H      0.71425100    -5.87163200     0.00113500
H      2.97721100    -4.72709500     0.00370700
H      3.89731500    -1.24637000    -0.00403600
