036
BNPAH_000180_PAH16   C20_H14_N01_B01  -849.64990713     0.00000000    11.72592000  4466.70972424     7.11815504   193.69486458 18688.71348622    30.59390222     0.04875449     1.32667715   128.00488689    -3.94380000    -0.14493198   -90.94618925  -380.51885582    -3.33780000    -0.12266189   -76.97149715  -322.04874410     0.60600000     0.02227009    13.97469210    58.47011173
C      5.02035000     1.45819800     0.00000000
C      4.98056800     0.08151300    -0.00000000
C      3.75049100    -0.65514600    -0.00000000
C      2.51600600     0.11061200     0.00000000
C      2.60459200     1.53227200     0.00000100
C      3.81252000     2.20071500     0.00000100
C      1.24023400    -0.57208800     0.00000000
C      1.20901000    -2.03395800    -0.00000000
B      2.51649700    -2.87080400    -0.00000000
C      3.77153700    -2.07693800    -0.00000100
C     -0.03864800    -2.66090700     0.00000000
C     -1.23269900    -1.93283800     0.00000000
N     -2.44506800    -2.58781900     0.00000100
C     -3.63388700    -1.99367800     0.00000100
C     -3.72421700    -0.57690900     0.00000000
C     -4.99170200     0.05899900    -0.00000000
C     -5.08151100     1.44047000    -0.00000100
C     -3.89880700     2.20867800    -0.00000100
C     -2.64790600     1.60351300    -0.00000000
C     -2.51381900     0.19611500    -0.00000000
C     -1.23229200    -0.49298900     0.00000000
C      0.01587800     0.13323200     0.00000000
H      5.98109600     1.98062900     0.00000000
H      5.91114200    -0.49283200    -0.00000100
H      1.69061800     2.12963300     0.00000100
H      3.83614100     3.29313600     0.00000100
H      2.44534800    -4.08347300    -0.00000100
H      4.77471500    -2.52165000    -0.00000100
H     -0.07938900    -3.75604200     0.00000000
H     -2.40738200    -3.60696400     0.00000100
H     -4.51435400    -2.63677900     0.00000100
H     -5.89437100    -0.55737700    -0.00000000
H     -6.05649800     1.93139600    -0.00000100
H     -3.96494300     3.29920700    -0.00000100
H     -1.75472500     2.22880200    -0.00000000
H      0.03547400     1.22208800     0.00000000
