032
BNPAH_000058_PAH21   C18_H12_N01_B01  -772.33730986     0.00000000     5.14517000  4041.19076640     6.44004742   175.24261628 16908.34216662    30.61508156     0.04878824     1.32759558   128.09350125    -4.61550000    -0.16961650  -106.43595935  -445.32805392    -2.19150000    -0.08053614   -50.53719097  -211.44760701     2.42400000     0.08908036    55.89876838   233.88044691
N      5.52448300    -2.02109800     0.00000000
C      4.32612100    -2.65828600     0.00000000
C      3.13369800    -1.94465500    -0.00000000
B      3.19634700    -0.40150000    -0.00000000
C      4.60564700     0.19535800    -0.00000000
C      5.68277000    -0.65139700     0.00000000
C      1.84326300     0.34254600    -0.00000000
C      1.73682500     1.76480900    -0.00000000
C      0.52312700     2.41161500    -0.00000000
C     -0.69430800     1.66875700    -0.00000000
C     -1.96070100     2.30824600     0.00000000
C     -3.13170500     1.56497200     0.00000000
C     -3.08020100     0.16085400     0.00000000
C     -1.85354600    -0.51416100    -0.00000000
C     -1.78008400    -1.95641300    -0.00000000
C     -0.58208900    -2.60010400    -0.00000000
C      0.67566100    -1.88731700    -0.00000000
C      1.86703800    -2.59994900    -0.00000000
C      0.64433600    -0.42259000    -0.00000000
C     -0.63049000     0.23674600    -0.00000000
H      6.36430600    -2.59128700     0.00000100
H      4.38448500    -3.75163000     0.00000000
H      4.84250400     1.26432300    -0.00000000
H      6.72749300    -0.32909200     0.00000000
H      2.65591100     2.35774400    -0.00000000
H      0.47164600     3.50399700    -0.00000000
H     -1.99842500     3.40078700     0.00000000
H     -4.10037400     2.07108900     0.00000100
H     -4.00640500    -0.42009100     0.00000000
H     -2.71507700    -2.52311900    -0.00000000
H     -0.54556500    -3.69322900    -0.00000000
H      1.81178800    -3.69575600    -0.00000000
