042
BNPAH_000467_PAH69   C24_H16_N01_B01 -1003.23153974     0.00000000     6.90715000  5289.56042460     8.42945110   229.37704784 22131.52081653    30.75325828     0.04900844     1.33358749   128.67163264    -4.59190000    -0.16874921  -105.89173042  -443.05100006    -2.62470000    -0.09645595   -60.52702037  -253.24505322     1.96720000     0.07229327    45.36471005   189.80594685
C     -2.78055100    -0.35468600     0.00000100
C     -2.70079900     1.02137500     0.00000000
C     -1.43514400     1.68035000    -0.00000000
C     -1.30248600     3.08361800    -0.00000100
C     -0.05560400     3.71335600    -0.00000100
C      0.03958200     5.15162200    -0.00000100
C      1.24997900     5.77316900    -0.00000100
C      2.49467300     5.04501500    -0.00000100
C      3.69873200     5.77301300     0.00000000
C      4.95840900     5.15315700     0.00000100
C      6.17780800     5.90536200     0.00000200
C      7.41947300     5.30865500     0.00000200
C      7.58536000     3.88372900     0.00000100
C      8.85913200     3.28120600     0.00000100
C      9.01232000     1.89131000    -0.00000100
C      7.87403100     1.09367700    -0.00000200
N      6.66294700     1.68238900    -0.00000100
C      6.41875100     3.03090300    -0.00000000
B      4.99745500     3.62542500    -0.00000000
C      3.68334400     2.88404300    -0.00000100
C      2.47359100     3.59247500    -0.00000100
C      1.15550700     2.92217800    -0.00000100
C      1.01936800     1.53377700    -0.00000000
C     -0.23566300     0.88413400     0.00000000
C     -0.35771200    -0.53741400     0.00000100
C     -1.59642000    -1.14275200     0.00000200
H     -3.75611700    -0.84732600     0.00000200
H     -3.60957500     1.62944700    -0.00000000
H     -2.20532900     3.70151800    -0.00000100
H     -0.88651600     5.73233000    -0.00000200
H      1.30404200     6.86566500    -0.00000100
H      3.62253000     6.86833000     0.00000100
H      6.13147900     7.00173700     0.00000200
H      8.32461400     5.92142300     0.00000300
H      9.74676800     3.91986200     0.00000200
H      9.99793100     1.42539200    -0.00000100
H      7.89475600     0.00361600    -0.00000300
H      5.83656900     1.08513300    -0.00000200
H      3.60455200     1.78859400    -0.00000100
H      1.90879000     0.90068000     0.00000000
H      0.55330800    -1.14263100     0.00000100
H     -1.67428600    -2.23284700     0.00000200
