038
BNPAH_000014_PAH34   C22_H14_N01_B01  -925.81417674     0.00000000    11.46840000  4798.29996341     7.64657772   208.07397816 20076.08704691    30.36898711     0.04839606     1.31692391   127.06384207    -4.33170000    -0.15918704   -99.89137582  -417.94551645    -2.97830000    -0.10945051   -68.68123014  -287.36226692     1.35340000     0.04973653    31.21014568   130.58324952
B     -6.58039200     0.33900800     0.00767600
C     -6.50155500    -1.16744600    -0.01081000
C     -5.26238900    -1.87866300    -0.02479600
C     -5.23085700    -3.29562200    -0.04203900
C     -4.02768200    -3.99438700    -0.05572100
C     -2.81466600    -3.30215700    -0.05263700
C     -2.77662900    -1.89151200    -0.03577100
C     -4.00622700    -1.17538300    -0.02178800
C     -4.01604700     0.27080600    -0.00433800
C     -5.22680700     1.01228400     0.00985900
C     -2.77185400     0.93154000    -0.00180600
C     -1.53215600     0.28287600    -0.01500200
C     -0.28483800     1.01998900    -0.01154600
C     -0.23276500     2.42904600     0.00520700
N      0.96319800     3.05940000     0.00758500
C      2.16098000     2.45129800    -0.00495300
C      2.21825700     1.03700900    -0.02222200
C      3.43926000     0.33144600    -0.03601000
C      3.42458000    -1.06635100    -0.05277200
C      2.22815400    -1.77842700    -0.05614600
C      0.97393600    -1.11374800    -0.04268800
C     -0.26624100    -1.81110700    -0.04568000
C     -1.49535200    -1.16746900    -0.03260700
C      0.96488100     0.31844000    -0.02542400
H     -7.62603000     0.95039800     0.01960200
H     -7.38968500    -1.81449500    -0.01473400
H     -6.18049400    -3.83777400    -0.04444900
H     -4.02596400    -5.08708400    -0.06892700
H     -1.88688400    -3.87517600    -0.06359100
H     -5.09219200     2.10346900     0.02239300
H      2.24243500    -2.87056400    -0.06935100
H      3.04336400     3.08936800    -0.00110400
H     -1.10710500     3.07398500     0.01679400
H      0.95112800     4.07731900     0.01990500
H      4.38186300     0.88241800    -0.03346500
H      4.37214700    -1.61070100    -0.06342900
H     -0.21683900    -2.90002100    -0.05898500
H     -2.81061600     2.02408200     0.01150100
