042
BNPAH_000404_PAH54   C24_H16_N01_B01 -1003.20446263     0.00000000     8.75749000  5272.56928046     8.40237399   228.64024210 22060.42986944    30.65447256     0.04885101     1.32930373   128.25831319    -4.34330000    -0.15961333  -100.15887818  -419.06474631    -2.61470000    -0.09608845   -60.29641489  -252.28019989     1.72860000     0.06352488    39.86246329   166.78454642
C      7.84571900     1.68603300    -0.00000200
C      7.73753800     0.26825600    -0.00000100
C      6.51198900    -0.33250400    -0.00000000
N      5.33288000     0.41426700     0.00000000
C      4.12317400    -0.20313400     0.00000100
C      2.88456200     0.46164100     0.00000100
C      2.93509300     1.92331400     0.00000000
C      4.19151400     2.52087000    -0.00000100
C      5.40645900     1.81494900    -0.00000100
C      6.68478000     2.42692800    -0.00000100
C      1.70521700     2.71696000     0.00000000
C      1.79375400     4.13359700     0.00000000
C      0.66747500     4.93874300     0.00000100
C     -0.59851700     4.33410600     0.00000200
C     -0.70016500     2.94908800     0.00000200
C      0.41925400     2.07632200     0.00000100
B      0.31358700     0.49758400     0.00000000
C      1.64769100    -0.25680400     0.00000100
C      1.64809000    -1.69313100     0.00000200
C      0.49513500    -2.42466100     0.00000200
C     -0.81473500    -1.82795800     0.00000100
C     -1.93667800    -2.69484300     0.00000000
C     -3.23141700    -2.20128500    -0.00000200
C     -3.42816400    -0.81047500    -0.00000300
C     -2.33316600     0.04814800    -0.00000300
C     -0.98429400    -0.39748100    -0.00000000
H      8.82334800     2.16881700    -0.00000200
H      8.62625400    -0.36461400    -0.00000100
H      6.36843700    -1.41229300     0.00000000
H      4.18349200    -1.28877200     0.00000100
H      4.29072600     3.60471900    -0.00000100
H      6.70988300     3.51796500    -0.00000200
H      2.76716600     4.62520000     0.00000000
H      0.76919900     6.02663700     0.00000100
H     -1.50317500     4.94772600     0.00000300
H     -2.55733000     1.11232500    -0.00000400
H      2.58519800    -2.26027600     0.00000300
H      0.55126200    -3.51739100     0.00000300
H     -1.76157100    -3.77501400     0.00000100
H     -4.08576900    -2.88352800    -0.00000200
H     -4.44077300    -0.39827400    -0.00000500
H     -1.70083400     2.52828100     0.00000300
