042
BNPAH_000004_PAH55   C24_H16_N01_B01 -1003.20013188     0.02100000     7.57235000  5269.85169269     8.39804323   228.52239634 22049.05948221    30.63867263     0.04882583     1.32861858   128.19220628    -4.87880000    -0.17929259  -112.50780164  -470.73264207    -2.45950000    -0.09038496   -56.71741784  -237.30567622     2.41930000     0.08890764    55.79038381   233.42696584
B      2.80347000    -0.27177900    -0.00164900
C      2.48860300    -1.73659400     0.00161500
C      1.15286000    -2.19953700     0.00152600
C      0.95443100    -3.58151400     0.00357100
N     -0.26572800    -4.10331200     0.00294000
C     -1.43778700    -3.37945100     0.00103200
C     -2.64888500    -4.18546100     0.00024900
C     -2.62281700    -5.60460100     0.00070700
C     -3.78731800    -6.35739600    -0.00038300
C     -5.03057800    -5.70760600    -0.00196900
C     -5.07705400    -4.32115000    -0.00238900
C     -3.90427900    -3.53098800    -0.00131100
C     -3.93251600    -2.06641600    -0.00114400
C     -5.16915300    -1.41902800    -0.00156600
C     -5.31737200    -0.02110300    -0.00030800
C     -6.58412800     0.63368000    -0.00059000
C     -6.65436400     2.00996600     0.00109400
C     -5.46579200     2.79272200     0.00318400
C     -4.22886400     2.18496500     0.00351800
C     -4.12237900     0.76210700     0.00171600
C     -2.87353200     0.10525100     0.00188400
C     -2.70286800    -1.28393400     0.00000800
C     -1.37168700    -1.96316600    -0.00008700
C     -0.04677200    -1.33749200    -0.00106800
C      0.25500600     0.05482700    -0.00494400
C      1.54084200     0.58538200    -0.00526500
H      3.92311100     0.18827300    -0.00192300
H      3.24358800    -2.53430800     0.00394900
H      1.78962900    -4.28415000     0.00532500
H     -0.35302500    -5.11410300     0.00406200
H     -1.68436300    -6.16604700     0.00182600
H     -3.72968200    -7.44793400    -0.00002500
H     -5.95719400    -6.28540500    -0.00283400
H     -6.05512900    -3.84218500    -0.00354300
H     -6.08379500    -2.01081200    -0.00261600
H     -7.49484700     0.02890700    -0.00210700
H     -7.62633400     2.50908400     0.00087800
H     -5.54024500     3.88266900     0.00453100
H     -3.31516400     2.78497500     0.00511100
H     -0.54262600     0.78307100    -0.00849900
H     -2.02293300     0.76646800     0.00401700
H      1.57457900     1.68311400    -0.00852400
