018
BNPAH_002229_PAH01   C00_H08_N05_B05  -402.67092030     0.00000000     7.57485000  1733.45102477     2.76243005    75.16955034  7252.75908764    25.49192683     0.04062397     1.10543456   106.65822186    -4.90270000    -0.18017090  -113.05894874  -473.03864152    -2.22060000    -0.08160555   -51.20825292  -214.25533020     2.68210000     0.09856536    61.85069582   258.78331132
N      0.00000000     1.26046800     1.36683100
N      0.00000000     2.48027800     0.76393500
N      0.00000000     2.59843300    -0.58653200
B      0.00000000     1.57281300    -1.58961300
B     -0.00000000    -1.59229100    -1.62954500
N     -0.00000000    -2.63257500    -0.63999000
B      0.00000000    -2.50304000     0.80626100
N      0.00000000    -1.22973500     1.44993200
B     -0.00000000    -0.00041400     0.67695400
B     -0.00000000     0.00680500    -1.00175200
H     -0.00000000     1.37678800     2.38001100
H     -0.00000000     3.31340200     1.33500800
H      0.00000000     3.58736200    -0.83027300
H      0.00000000     2.07617800    -2.69352900
H     -0.00000000    -1.97419300    -2.78482200
H      0.00000000    -3.59599300    -0.97206400
H      0.00000000    -3.50801900     1.48090300
H      0.00000000    -1.23626700     2.46828700
