036
BNPAH_000071_PAH16   C20_H14_N01_B01  -849.70207973     0.00000000     3.69577000  4499.44852863     7.17032764   195.11455349 18825.69264379    30.81814061     0.04911183     1.33640105   128.94310031    -5.14100000    -0.18892827  -118.55427733  -496.03109635    -2.18760000    -0.08039282   -50.44725483  -211.07131421     2.95340000     0.10853545    68.10702250   284.95978214
C      5.24741200     1.32980000     0.00000100
C      5.10406900    -0.03617100     0.00000000
C      3.79253000    -0.61913500    -0.00000000
B      2.53970900     0.28244300    -0.00000000
C      2.80662900     1.78857100    -0.00000000
C      4.11627100     2.21966900     0.00000000
C      1.17423100    -0.46096900    -0.00000100
C      1.17513800    -1.89062300    -0.00000000
N      2.39217100    -2.57185200    -0.00000000
C      3.61585400    -1.99538600    -0.00000000
C     -0.01341400    -2.62528900    -0.00000000
C     -1.25700200    -1.97335800    -0.00000000
C     -2.48383100    -2.72543600     0.00000000
C     -3.69371800    -2.09807000     0.00000000
C     -3.79454700    -0.66181700     0.00000000
C     -5.05980000    -0.02670600     0.00000100
C     -5.16627900     1.35515900     0.00000000
C     -3.99746300     2.14051900    -0.00000000
C     -2.74667700     1.53837800    -0.00000100
C     -2.60504700     0.13034200    -0.00000000
C     -1.30363300    -0.53598400    -0.00000100
C     -0.08406800     0.16300300    -0.00000100
H      6.24966500     1.76727700     0.00000100
H      5.99404800    -0.67732900     0.00000100
H      2.02789300     2.56099200    -0.00000000
H      4.34235700     3.29337900     0.00000100
H      2.34463400    -3.58625100    -0.00000000
H      4.44937400    -2.70713900     0.00000000
H      0.01295300    -3.71977500    -0.00000000
H     -2.42493800    -3.81709500     0.00000000
H     -4.61856000    -2.68106400     0.00000100
H     -5.95840000    -0.64965100     0.00000100
H     -6.14885300     1.83278000     0.00000100
H     -4.07224500     3.23059800    -0.00000000
H     -1.85886200     2.17214600    -0.00000100
H     -0.09760100     1.25406500    -0.00000100
