030
BNPAH_000150_PAH07   C16_H12_N01_B01  -696.11578274     0.00000000     6.56007000  3673.67088713     5.85436721   159.30544605 15370.63899175    30.61392406     0.04878639     1.32754538   128.08865827    -4.73740000    -0.17409624  -109.24704015  -457.08961600    -2.51120000    -0.09228490   -57.90964817  -242.29396793     2.22620000     0.08181134    51.33739198   214.79564806
C      4.67022900     0.00124700     0.00005400
C      3.81780400     1.09483600    -0.00032900
C      2.41513000     0.93078200    -0.00004700
C      1.52813400     2.05736600    -0.00044300
C      0.18340800     1.87294600    -0.00016200
C     -0.41748400     0.56715400     0.00053500
C     -1.82586000     0.41484800     0.00081200
C     -2.37806100    -0.92996200     0.00152000
C     -3.75492300    -1.15336600     0.00182500
C     -4.67623200    -0.08299900     0.00145800
C     -4.28072200     1.25190600     0.00077600
B     -2.81222100     1.61117400     0.00039500
C     -1.44762400    -2.01674400     0.00189200
C     -0.10675600    -1.81442500     0.00160200
N      0.45033800    -0.53166300     0.00092200
C      1.86012500    -0.37858600     0.00064300
C      2.74057600    -1.48201000     0.00102600
C      4.11873900    -1.28955600     0.00073500
H      5.75302500     0.14016400    -0.00016900
H      4.21697800     2.11192900    -0.00086100
H      1.95349000     3.06342800    -0.00097400
H     -0.51085800     2.71005900    -0.00045200
H     -4.12054300    -2.18412700     0.00236100
H     -5.74237400    -0.34337200     0.00173500
H     -5.07727200     2.00492500     0.00053800
H     -2.44395500     2.76451200    -0.00019800
H     -1.81115600    -3.04712300     0.00242700
H      0.59209100    -2.64192400     0.00188800
H      2.37279600    -2.50524500     0.00155500
H      4.77271800    -2.16434600     0.00104500
