042
BNPAH_000251_PAH52   C24_H16_N01_B01 -1003.20141412     0.00000000    13.27807000  5270.65631123     8.39932548   228.55728790 22052.42600619    30.64335065     0.04883329     1.32882144   128.21177912    -4.11510000    -0.15122714   -94.89646112  -397.04679334    -3.04010000    -0.11172162   -70.10637201  -293.32506050     1.07500000     0.03950552    24.79008911   103.72173285
N     -2.55069300    -0.59048400    -0.00001300
C     -2.73362300     0.78508300    -0.00003100
C     -1.63436100     1.60032000    -0.00003200
C     -0.31356400     1.06399300    -0.00001400
C      0.84590800     1.84759600    -0.00001300
C      2.15850500     1.33489200     0.00000600
C      2.26126500    -0.14075600     0.00001800
C      3.53383200    -0.77835000     0.00002600
C      4.70776400    -0.06025700     0.00002000
C      4.77289400     1.36509200     0.00000900
B      3.48162200     2.17859900     0.00001000
C      3.64575400     3.74560600     0.00001300
C      2.57460800     4.67745100     0.00003100
C      2.74372400     6.05586100     0.00003200
C      4.04144400     6.58304900     0.00001600
C      5.12279300     5.71536000     0.00000100
C      4.96980300     4.30464600     0.00000100
C      6.17326500     3.44937200    -0.00000800
C      7.46740800     4.02701300    -0.00002100
C      8.62961800     3.26967500    -0.00002700
C      8.53853400     1.86888400    -0.00002000
C      7.28938000     1.27225000    -0.00000800
C      6.07734000     2.01839100    -0.00000100
C      1.11640900    -0.94480900     0.00001800
C     -0.17586000    -0.38762200     0.00000400
C     -1.33513600    -1.16484500     0.00000300
H     -3.37232800    -1.18817800    -0.00001300
H     -3.76515400     1.13207300    -0.00004400
H     -1.77936500     2.68243500    -0.00004600
H      1.54849800     4.31895900     0.00004900
H      3.56391800    -1.87144500     0.00003400
H      5.62790000    -0.65108000     0.00002400
H      0.68574900     2.92263000    -0.00003000
H      1.87292000     6.71724100     0.00004700
H      4.20728700     7.66360100     0.00001600
H      6.11902200     6.15585300    -0.00000900
H      7.57570100     5.11075500    -0.00002700
H      9.60364500     3.76529900    -0.00003700
H      9.44096500     1.25195700    -0.00002500
H      7.24647200     0.18318600    -0.00000300
H      1.22933700    -2.03318800     0.00002900
H     -1.30937100    -2.25613600     0.00001600
