042
BNPAH_000115_PAH26   C24_H16_N01_B01 -1003.20028935     5.74700000     8.67803000  5269.95050356     8.39820070   228.52668119 22049.47290690    30.63924711     0.04882675     1.32864350   128.19460991    -4.36500000    -0.16041079  -100.65929207  -421.15847803    -3.02180000    -0.11104910   -69.68436398  -291.55937890     1.34320000     0.04936169    30.97492809   129.59909913
C     -5.65279100    -1.99169200     0.84463500
C     -5.54596500    -0.58857600     1.04441900
C     -4.35658600     0.10109000     0.83538200
C     -3.16773500    -0.56445300     0.40125500
B     -3.21433800    -2.08762900     0.24669800
C     -4.56216900    -2.76444900     0.48269300
C     -1.89198100    -2.78341400    -0.17254900
C     -1.84221900    -4.15374000    -0.52856600
C     -0.68067100    -4.76583400    -0.97623900
C      0.49389700    -3.99966200    -1.11968200
C      0.49686300    -2.66213000    -0.76138000
C     -0.67162200    -2.02701200    -0.24327200
C     -0.66986200    -0.60721000     0.07462200
C     -1.91119000     0.10415800     0.16424500
C     -1.81530400     1.49282600    -0.19055100
N     -2.94677700     2.13998200    -0.61757000
C     -2.99868200     3.40393000    -1.07519500
C     -1.83745400     4.15437800    -1.13312200
C     -0.63554600     3.55192500    -0.73261700
C     -0.58858200     2.23322900    -0.26436400
C      0.61694400     1.55701000     0.17130400
C      1.80765500     2.26108900     0.45880000
C      2.93100600     1.60618100     0.93869600
C      2.86674300     0.22045900     1.17477900
C      1.71267800    -0.49177700     0.88404800
C      0.56031100     0.13740400     0.33816200
H     -6.63250400    -2.45214800     1.02403300
H     -6.41664900    -0.03889200     1.41477500
H     -3.80051800     1.56601500    -0.58488600
H     -4.73001600    -3.84587600     0.39809600
H     -2.76260900    -4.73989500    -0.46162400
H     -0.68026100    -5.82504600    -1.24764100
H      1.39870000    -4.45172000    -1.53443100
H      1.66886000    -1.55361900     1.12372500
H     -4.34776700     1.15634000     1.14372200
H     -3.97737100     3.76668500    -1.39050700
H     -1.86584900     5.17996400    -1.50013800
H      0.28984000     4.12565000    -0.80543800
H      1.83699900     3.34567300     0.33486300
H      3.83995800     2.16679400     1.16677700
H      3.72281500    -0.29918700     1.61190500
H      1.40017100    -2.07682200    -0.93786100
