038
BNPAH_000151_PAH36   C22_H14_N01_B01  -925.86399588     0.00000000     6.74168000  4829.56195061     7.69639687   209.42962622 20206.88720135    30.56684779     0.04871137     1.32550396   127.89169115    -4.66880000    -0.17157524  -107.66508656  -450.47072216    -2.65530000    -0.09758048   -61.23267314  -256.19750440     2.01350000     0.07399476    46.43241342   194.27321776
C      6.76182200     1.12515500    -0.00000100
C      5.58008100     1.83368300    -0.00000000
C      4.32427400     1.15620800     0.00000000
C      4.30605600    -0.28211500     0.00000000
C      5.55035000    -0.98331000    -0.00000000
C      6.74560700    -0.29832900    -0.00000100
C      3.06421800    -0.94626300     0.00000100
C      1.83905400    -0.26976100     0.00000000
C      0.57599900    -1.01135000     0.00000000
B      0.47663500    -2.54052400     0.00000100
C     -0.92619900    -3.15441500     0.00000000
C     -2.03837700    -2.34125500    -0.00000000
C     -1.89695400    -0.93173000    -0.00000000
N     -3.03361500    -0.16324700    -0.00000100
C     -3.07779400     1.16883100    -0.00000100
C     -1.87230900     1.90803900    -0.00000000
C     -1.88728200     3.32165400    -0.00000000
C     -0.68553000     4.01357200     0.00000000
C      0.53243800     3.32085900     0.00000100
C      0.59757900     1.91561900     0.00000000
C      1.86436000     1.17585600     0.00000000
C      3.09224800     1.84048600     0.00000000
C     -0.62892100     1.18501200    -0.00000000
C     -0.62151200    -0.25781200    -0.00000000
H      7.71841500     1.65343300    -0.00000100
H      5.58879700     2.92731800    -0.00000000
H      5.53582800    -2.07637400    -0.00000000
H      7.69087600    -0.84680200    -0.00000100
H      3.05356500    -2.03641600     0.00000100
H      1.44561500    -3.26264500     0.00000100
H     -1.10180200    -4.23604700     0.00000000
H     -3.06040600    -2.74594500    -0.00000000
H     -3.91605700    -0.67344400    -0.00000100
H     -4.06151000     1.63784200    -0.00000100
H     -2.84283300     3.85148400    -0.00000000
H     -0.68233600     5.10589200     0.00000100
H      1.45420400     3.90278200     0.00000100
H      3.12603300     2.93153900     0.00000000
