042
BNPAH_000168_PAH38   C24_H16_N01_B01 -1003.21049339     0.00000000    10.17897000  5276.35363885     8.40840475   228.80434741 22076.26362495    30.67647464     0.04888607     1.33025783   128.35036989    -3.93280000    -0.14452774   -90.69252322  -379.45751716    -2.90250000    -0.10666491   -66.93324061  -280.04867869     1.03030000     0.03786283    23.75928262    99.40883847
C      8.08731000     0.39735400     0.00000100
C      6.92798900    -0.33842200     0.00000000
C      5.64309100     0.30103600    -0.00000000
C      4.44533000    -0.41855300    -0.00000100
C      3.17017000     0.20329200    -0.00000100
C      1.96508000    -0.53770500    -0.00000100
B      0.64180500     0.16328800    -0.00000100
C      0.66896200     1.70885300    -0.00000100
C      1.90103100     2.36475500    -0.00000100
C      3.13671700     1.66774200    -0.00000100
C      4.35225300     2.38577700    -0.00000100
C      5.59922200     1.75328500    -0.00000000
C      6.83379100     2.48063500     0.00000100
C      8.04182500     1.82719300     0.00000100
C     -0.58603200     2.43479700    -0.00000100
C     -0.68157900     3.84504900    -0.00000100
C     -1.89780000     4.53116200    -0.00000000
C     -3.07011400     3.79570200     0.00000100
N     -2.98342500     2.44797100     0.00000100
C     -1.83438500     1.70630100     0.00000000
C     -1.95264100     0.25984900     0.00000000
C     -3.22292700    -0.38219600     0.00000100
C     -3.32699700    -1.76180100     0.00000100
C     -2.15499400    -2.54809900     0.00000000
C     -0.91164100    -1.93526200    -0.00000100
C     -0.75581200    -0.52587800    -0.00000100
H      9.05668900    -0.10787100     0.00000200
H      6.96500700    -1.43137100     0.00000000
H      4.48643200    -1.51214100    -0.00000100
H      2.08887000    -1.62859600    -0.00000100
H      1.97553700     3.45935200    -0.00000100
H      4.31453400     3.48016000    -0.00000100
H      6.79429300     3.57379900     0.00000100
H      8.97545800     2.39531100     0.00000200
H      0.24192300     4.42535600    -0.00000100
H     -1.93700100     5.62066900    -0.00000000
H     -4.07252900     4.22264000     0.00000100
H     -3.85365300     1.92026400     0.00000100
H     -4.16193500     0.18400200     0.00000200
H     -4.31117200    -2.23566800     0.00000200
H     -2.23378400    -3.63835000     0.00000000
H     -0.01105600    -2.55368100    -0.00000100
