032
BNPAH_000093_PAH21   C18_H12_N01_B01  -772.32117154     0.00000000     6.78786000  4031.06381366     6.42390909   174.80347005 16865.97099635    30.53836222     0.04866598     1.32426871   127.77250753    -4.65140000    -0.17093580  -107.26383302  -448.79187737    -2.98030000    -0.10952401   -68.72735124  -287.55523759     1.67110000     0.06141179    38.53648178   161.23663978
C      5.52434100    -2.03016500     0.00000000
C      4.25148300    -2.64041100     0.00000000
C      3.09625500    -1.86280400    -0.00000000
C      3.12637400    -0.41193400    -0.00000000
B      4.51894600     0.27357800     0.00000000
C      5.71176000    -0.64852300     0.00000000
C      1.88001200     0.26715800    -0.00000000
C      1.78860200     1.70654500    -0.00000000
C      0.58420400     2.35147800    -0.00000000
C     -0.66554500     1.63668500    -0.00000000
C     -1.91323100     2.28266100     0.00000000
C     -3.10552800     1.54736200     0.00000000
C     -3.07238700     0.15391000     0.00000000
C     -1.84180600    -0.53764400     0.00000000
C     -1.76455000    -1.96876500    -0.00000000
C     -0.55924600    -2.62191400    -0.00000000
C      0.65971200    -1.87541000    -0.00000000
N      1.85909200    -2.49915000    -0.00000000
C      0.63651400    -0.45723500    -0.00000000
C     -0.62282800     0.20924700    -0.00000000
H      6.38984300    -2.70498100     0.00000000
H      4.16579200    -3.73159500     0.00000000
H      4.62636500     1.47934400     0.00000000
H      6.74804600    -0.29218600     0.00000000
H      2.72117000     2.26975700    -0.00000000
H      0.55300700     3.44444300    -0.00000000
H     -1.94545700     3.37527200     0.00000000
H     -4.06497400     2.06914600     0.00000100
H     -4.00379100    -0.41822900     0.00000000
H     -2.69355300    -2.54449100    -0.00000000
H     -0.51607800    -3.71411700    -0.00000000
H      1.86593900    -3.51686000    -0.00000000
