038
BNPAH_000479_PAH62   C22_H14_N01_B01  -925.85935434     0.00100000     3.72729000  4826.64934260     7.69175533   209.30332358 20194.70084944    30.54841356     0.04868200     1.32470458   127.81456234    -4.94300000    -0.18165190  -113.98828882  -476.92700044    -2.23110000    -0.08199141   -51.45038867  -215.26842619     2.71190000     0.09966049    62.53790015   261.65857424
C      4.66241400     2.09284300     0.00010400
C      4.77643300     0.68509000     0.00023700
C      3.65670200    -0.12518500     0.00020800
C      2.32355300     0.37874300     0.00003500
C      2.23367200     1.82105100    -0.00005000
C      3.40178800     2.64045900    -0.00002900
C      0.97986700     2.45089700    -0.00012900
C     -0.19248700     1.71757100    -0.00009900
C     -1.44646300     2.42544100    -0.00012500
C     -2.63024100     1.76538300    -0.00007300
C     -2.65385400     0.32843800     0.00000200
C     -1.42046900    -0.41238800     0.00000900
C     -1.47474100    -1.83027800     0.00007100
C     -2.73733600    -2.46285800     0.00014000
C     -3.92461200    -1.73653300     0.00014100
C     -3.88451200    -0.34582600     0.00006900
C     -0.20786900    -2.57271300     0.00002400
C     -0.33576300    -3.97520100     0.00003300
N      0.71458200    -4.80704400    -0.00007100
C      1.99663600    -4.38025300    -0.00021300
B      2.28204100    -2.91025100    -0.00022900
C      1.08201800    -1.92177300    -0.00005800
C      1.10387500    -0.43707000    -0.00001900
C     -0.14582700     0.27046000    -0.00003700
H      5.55219100     2.72677200     0.00012600
H      5.76459100     0.21779900     0.00037100
H      3.45441900    -2.68857700    -0.00040300
H      3.26182500     3.72467900    -0.00010900
H      0.93093500     3.54319000    -0.00018200
H     -1.41111100     3.51773700    -0.00017800
H     -3.58108500     2.30375700    -0.00008300
H     -2.81957700    -3.54847300     0.00019000
H     -4.88199900    -2.26286500     0.00019400
H     -4.80797300     0.23851900     0.00006400
H     -1.30125700    -4.46936600     0.00011100
H      0.50986200    -5.80540800    -0.00005800
H      2.73624700    -5.18390500    -0.00031300
H      3.81261500    -1.19107300     0.00033000
