042
BNPAH_000119_PAH75   C24_H16_N01_B01 -1003.21042762     0.00000000     8.70899000  5276.31236938     8.40833898   228.80255780 22076.09095349    30.67623471     0.04888569     1.33024743   128.34936603    -4.23320000    -0.15556723   -97.61991184  -408.44171116    -2.70890000    -0.09955024   -62.46871851  -261.36911825     1.52430000     0.05601699    35.15119333   147.07259291
C      2.83569200     0.35910300    -0.00000000
C      2.96345000    -1.04641100    -0.00000100
C      1.82032300    -1.83736900    -0.00000100
C      0.51853400    -1.27762900    -0.00000000
B     -0.75503500    -2.13491100     0.00000000
C     -2.10301100    -1.39711400     0.00000000
C     -2.08037400     0.06015800     0.00000100
C     -3.33599600     0.76424800     0.00000100
C     -4.54123100     0.12461600     0.00000100
C     -4.61519000    -1.31519800     0.00000000
C     -5.85585400    -1.99902900    -0.00000000
C     -7.11069500    -1.30742800    -0.00000100
C     -8.30479000    -1.95717600    -0.00000100
C     -8.35067600    -3.39203000    -0.00000100
C     -9.57611000    -4.09149000    -0.00000100
C     -9.61420500    -5.47950400    -0.00000000
C     -8.40638500    -6.19086400     0.00000100
C     -7.18130200    -5.52686700     0.00000100
C     -7.12780400    -4.11816200    -0.00000000
N     -5.89993800    -3.40606200     0.00000000
C     -4.69478500    -4.09339500     0.00000000
C     -3.49092600    -3.46819400     0.00000000
C     -3.36411800    -2.04029700     0.00000000
C     -0.88825200     0.77284400     0.00000100
C      0.40217400     0.15560000     0.00000000
C      1.58079500     0.94953200     0.00000000
H      3.73173700     0.98624100    -0.00000100
H      3.95627400    -1.50386600    -0.00000100
H      1.91727800    -2.92740800    -0.00000100
H     -0.66246300    -3.34368700    -0.00000000
H     -3.31427600     1.85815300     0.00000100
H     -5.45124900     0.72408100     0.00000100
H     -7.08837000    -0.22065800    -0.00000100
H     -9.24275700    -1.39842600    -0.00000200
H    -10.50127900    -3.51023200    -0.00000100
H    -10.56879000    -6.00899900    -0.00000000
H     -8.41287400    -7.28296900     0.00000100
H     -6.27765400    -6.13190300     0.00000100
H     -4.75980300    -5.17525700     0.00000000
H     -2.58898000    -4.07851900     0.00000100
H     -0.93426900     1.86661200     0.00000100
H      1.48858400     2.03986700     0.00000000
