042
BNPAH_000201_PAH59   C24_H16_N01_B01 -1003.20816105     0.00000000    12.14695000  5274.89007503     8.40607241   228.74088128 22070.14007393    30.66796555     0.04887251     1.32988884   128.31476786    -4.07900000    -0.14990049   -94.06397534  -393.56367283    -2.82570000    -0.10384256   -65.16219052  -272.63860513     1.25330000     0.04605793    28.90178482   120.92506770
N      2.03139900     3.53304300    -0.00000200
C      2.11154900     2.18006700    -0.00000100
C      0.97665800     1.37323600    -0.00000000
C     -0.31896600     2.02011100     0.00000000
C     -0.32284000     3.44801900    -0.00000000
C      0.83373500     4.18190500    -0.00000100
C     -1.52506300     1.23334800     0.00000100
C     -1.44886100    -0.21272300     0.00000100
B     -2.75193500    -0.99900800     0.00000100
C     -4.07126600    -0.22463400     0.00000100
C     -4.01174000     1.21100000     0.00000100
C     -5.22473400     1.99260000     0.00000200
C     -6.45009600     1.39658400     0.00000100
C     -6.57536700    -0.03571500     0.00000000
C     -7.84966600    -0.65088500    -0.00000100
C     -7.97712600    -2.03162500    -0.00000200
C     -6.81826600    -2.83471900    -0.00000200
C     -5.55991100    -2.25220600    -0.00000100
C     -5.38864800    -0.84213700     0.00000000
C     -2.77871800     1.88512500     0.00000100
C     -0.13742500    -0.84037600     0.00000100
C     -0.00119300    -2.25830200     0.00000100
C      1.23259100    -2.88245800     0.00000100
C      2.41968900    -2.12114800     0.00000100
C      2.32880800    -0.74034800     0.00000000
C      1.07530800    -0.07990700     0.00000000
H      2.89145800     4.07377900    -0.00000200
H      3.12166800     1.77590200    -0.00000200
H     -1.26393600     3.99328400    -0.00000000
H      0.86405000     5.27095800    -0.00000200
H     -2.75108600    -2.20715900     0.00000000
H     -5.14245400     3.08405900     0.00000200
H     -7.36292600     1.99948800     0.00000200
H     -8.73933800    -0.01416100    -0.00000000
H     -8.96741900    -2.49415800    -0.00000200
H     -6.91142000    -3.92396400    -0.00000300
H     -4.66926000    -2.88058400    -0.00000100
H     -2.82655100     2.97529800     0.00000200
H     -0.91215100    -2.85461300     0.00000100
H      1.28601200    -3.97428900     0.00000100
H      3.39645700    -2.60977900     0.00000000
H      3.25627700    -0.16290200    -0.00000000
