042
BNPAH_000139_PAH26   C24_H16_N01_B01 -1003.16988101     6.28700000    10.78885000  5250.86898403     8.36779236   227.69922819 21969.63582918    30.52830805     0.04864996     1.32383272   127.73044088    -4.16860000    -0.15319323   -96.13020044  -402.20875865    -3.07280000    -0.11292332   -70.86045193  -296.48013088     1.09580000     0.04026991    25.26974851   105.72862777
C     -5.55731900    -1.91168700    -1.13098500
C     -5.37700100    -0.53194700    -1.26156100
C     -4.19926100     0.11282200    -0.86370800
C     -3.09142400    -0.60232600    -0.33375900
C     -3.12942500    -2.04118500    -0.23173300
B     -4.42533700    -2.77114100    -0.61874800
C     -1.93149100    -2.72014700     0.21318100
C     -1.95210600    -4.10421200     0.54358900
C     -0.82348600    -4.77138200     0.98152900
C      0.39706200    -4.07959000     1.14044400
C      0.46601400    -2.73866200     0.80978600
C     -0.67002900    -2.03770300     0.31458100
C     -0.62640000    -0.61834700     0.04672000
C     -1.85910900     0.06955600     0.00982300
N     -1.82530300     1.45148000     0.34756400
C     -2.94630400     2.01570800     0.93307000
C     -2.98812600     3.32542300     1.32910300
C     -1.85299800     4.14665600     1.14755500
C     -0.71067400     3.57140700     0.63398300
C     -0.66119000     2.21235700     0.24709600
C      0.53475900     1.56532500    -0.21986300
C      1.67529800     2.31333200    -0.61114900
C      2.81871500     1.68281100    -1.06413700
C      2.84242700     0.27643100    -1.16831900
C      1.74544700    -0.47489300    -0.78434400
C      0.57010100     0.13749700    -0.26895300
H     -6.52436100    -2.31668900    -1.45336600
H     -6.16378800     0.09651000    -1.69875600
H     -3.77871500     1.32881400     1.06785900
H     -4.52897200    -3.97696600    -0.55609800
H     -2.90177200    -4.63034600     0.45227700
H     -0.88449100    -5.83328200     1.23374900
H      1.27414700    -4.58900900     1.54631200
H      1.75872500    -1.55393700    -0.92795100
H     -4.11518700     1.18689000    -1.04913000
H     -3.89817800     3.69922100     1.79936400
H     -1.86554600     5.19745300     1.44077100
H      0.20256800     4.15704300     0.54543800
H      1.64530700     3.40328100    -0.58783100
H      3.68362200     2.27355100    -1.37263000
H      3.72164200    -0.22478800    -1.57942000
H      1.39258300    -2.19532900     0.99864600
