034
BNPAH_000211_PAH30   C20_H12_N01_B01  -848.49130120     0.00000000     6.40739000  4366.33129491     6.95819183   189.34204394 18268.73013790    30.32174510     0.04832078     1.31487530   126.86618150    -4.27060000    -0.15694166   -98.48237634  -412.05026261    -2.65440000    -0.09754740   -61.21191864  -256.11066760     1.61620000     0.05939425    37.27045770   155.93959500
N      5.28305700    -0.34146900     0.00000000
C      4.12235100    -1.03960800     0.00000000
C      2.90016500    -0.35058300     0.00000000
C      1.66425000    -1.04609000    -0.00000000
C      0.45885500    -0.35445500    -0.00000000
C      0.46257900     1.09147800    -0.00000000
C     -0.77159500     1.78499400    -0.00000000
C     -2.01814900     1.07242500    -0.00000000
C     -3.21937200     1.78875700     0.00000000
C     -3.21690000     3.19800600     0.00000000
C     -2.02429700     3.90222800     0.00000000
C     -0.77161000     3.22453400     0.00000000
C      0.45462700     3.91624800    -0.00000000
C      1.70799400     3.27298900    -0.00000000
C      2.92455400     4.01331000    -0.00000000
B      4.25116500     3.34207000    -0.00000000
C      4.19075400     1.79510100    -0.00000000
C      5.34400200     1.01465900     0.00000000
C      2.92234800     1.09367400    -0.00000000
C      1.70298200     1.81009700    -0.00000000
C     -1.98827800    -0.36818200    -0.00000000
C     -0.80705100    -1.04776300    -0.00000000
H      6.15577100    -0.86424500     0.00000100
H      4.19806900    -2.12646400     0.00000000
H      1.66277300    -2.13948200    -0.00000000
H     -4.16703000     1.24393400     0.00000000
H     -4.16726800     3.73740100     0.00000100
H     -2.02928800     4.99520600     0.00000000
H      0.43658000     5.00986900    -0.00000000
H      2.79634000     5.10278900    -0.00000000
H      5.32629700     3.90325000    -0.00000000
H      6.34513200     1.44753600     0.00000000
H     -2.93861300    -0.90856400    -0.00000000
H     -0.79543400    -2.14087100    -0.00000100
