042
BNPAH_000404_PAH50   C24_H16_N01_B01 -1003.14617094     0.00900000    18.99952000  5235.99068531     8.34408228   227.05404410 21907.38502734    30.44180631     0.04851211     1.32008165   127.36851760    -4.09510000    -0.15049215   -94.43525016  -395.11708669    -3.33610000    -0.12259941   -76.93229422  -321.88471903     0.75900000     0.02789274    17.50295594    73.23236766
C     -2.95478700     0.32417300    -0.00037500
C     -2.81744700     1.74294500    -0.00124600
C     -1.57219800     2.30233600    -0.00128300
N     -0.42074300     1.52668500    -0.00049400
C      0.81238900     2.13735800    -0.00056300
C      2.01513000     1.44259800     0.00016000
C      1.93534500    -0.00341200     0.00107000
C      3.14123200    -0.72081300     0.00199000
C      4.36098300    -0.06471000     0.00177700
C      4.54672200     1.34609000     0.00056100
C      5.86698400     2.01558800     0.00015400
C      5.79881500     3.47232000     0.00043000
C      6.97143200     4.28451400     0.00092400
C      8.20481000     3.71374700     0.00105500
C      8.37756000     2.29222700     0.00034100
C      9.69600600     1.80845200     0.00020000
B     10.01989200     0.33159100    -0.00102600
C      8.76749800    -0.54261600    -0.00224700
C      7.50172900     0.00801200    -0.00196200
C      7.19570400     1.41787900    -0.00041200
C      4.57387600     4.16407700     0.00021500
C      3.35689200     3.51965700    -0.00012500
C      3.31041100     2.11647300     0.00011400
C      0.66316400    -0.61135100     0.00115000
C     -0.51737600     0.12226800     0.00037500
C     -1.82625100    -0.45334200     0.00041200
H     -3.94607800    -0.13160400    -0.00033800
H     -3.68979300     2.39688700    -0.00188700
H     -1.39895100     3.37810300    -0.00192500
H      0.75963600     3.22340200    -0.00127000
H      3.11838300    -1.81241800     0.00292200
H      6.69622800    -0.71453600    -0.00328900
H      6.84618400     5.37020600     0.00124700
H      9.10560100     4.33347600     0.00150400
H     10.46421100     2.59336800     0.00093800
H     11.14879800    -0.11135300    -0.00125800
H      8.79678300    -1.64042400    -0.00350700
H      5.22389200    -0.71148200     0.00277700
H      4.60680000     5.25650700     0.00028200
H      2.44623700     4.11925700    -0.00033300
H      0.58524400    -1.69964000     0.00185300
H     -1.88638000    -1.54248700     0.00109200
