042
BNPAH_000026_PAH73   C24_H16_N01_B01 -1003.28726790     0.00000000     1.85654000  5324.53038000     8.48517927   230.89348862 22277.83510992    30.95657198     0.04933244     1.34240400   129.52229716    -4.95430000    -0.18206717  -114.24887302  -478.01728470    -2.25840000    -0.08299467   -52.07994163  -217.90247578     2.69590000     0.09907250    62.16893139   260.11480892
N      8.10885500    -0.10160500    -0.00000200
B      6.93633800    -0.91108700    -0.00000100
C      5.59553700    -0.15064000     0.00000000
C      4.36168000    -0.79847200     0.00000100
C      3.13597800    -0.08851000     0.00000100
C      1.87779500    -0.73364500     0.00000100
C      0.68093900    -0.02209500     0.00000100
C      0.70529100     1.42677000     0.00000100
C      1.94024300     2.06584200     0.00000200
C      3.16844200     1.35539800     0.00000100
C      4.41984100     2.01372100     0.00000100
C      5.61998500     1.29954200     0.00000000
C      6.89985400     1.97233300    -0.00000000
C      8.07284100     1.28381200    -0.00000100
C     -0.57321100     2.15801700     0.00000100
C     -0.64789600     3.54932400     0.00000100
C     -1.87892300     4.24530100     0.00000000
C     -1.94583600     5.66982200     0.00000100
C     -3.16175500     6.32012000    -0.00000000
C     -4.37381100     5.57720000    -0.00000100
C     -4.34638400     4.19873900    -0.00000100
C     -3.10657000     3.49412800    -0.00000100
C     -3.02940400     2.08483800    -0.00000100
C     -1.80886100     1.40946800    -0.00000000
C     -1.76673500    -0.03581600    -0.00000000
C     -0.58837500    -0.71222800     0.00000000
H      9.03519100    -0.51729300    -0.00000200
H      7.05179800    -2.11004500    -0.00000100
H      4.33116300    -1.89232900     0.00000000
H      1.84588400    -1.82699700     0.00000100
H      1.99345200     3.15625700     0.00000200
H      4.44065700     3.10769500     0.00000100
H      6.92900800     3.06379700    -0.00000000
H      9.03736800     1.79621000    -0.00000200
H      0.26591500     4.14671100     0.00000200
H     -1.01302400     6.24020900     0.00000100
H     -3.19892600     7.41216100     0.00000000
H     -5.33005300     6.10602900    -0.00000200
H     -5.27726100     3.62543300    -0.00000200
H     -3.95599100     1.50358900    -0.00000100
H     -2.71671100    -0.57643800    -0.00000100
H     -0.57665600    -1.80528500     0.00000000
