036
BNPAH_000084_PAH18   C20_H14_N01_B01  -849.69279840     0.00000000     3.25040000  4493.62440622     7.16104631   194.86199564 18801.32451562    30.77824936     0.04904826     1.33467120   128.77619532    -5.14730000    -0.18915979  -118.69955878  -496.63895395    -2.50490000    -0.09205338   -57.76436672  -241.68611034     2.64240000     0.09710641    60.93519207   254.95284361
C     -2.42156500    -3.39683700     0.00000000
C     -2.29064300    -2.01845200    -0.00000000
C     -0.99307100    -1.45240200    -0.00000000
B      0.26506900    -2.33633700     0.00000000
C      0.00247800    -3.84598500     0.00000000
C     -1.30396800    -4.29203400     0.00000000
C      1.56833800    -1.57303200    -0.00000000
C      1.60036000    -0.16754700    -0.00000000
C      0.36577000     0.56067400    -0.00000000
C      0.33555500     1.99284500    -0.00000000
C      1.49091400     2.71663500     0.00000000
C      2.77637500     2.07034600    -0.00000000
C      3.95206700     2.82693100     0.00000000
C      5.22508700     2.22493300     0.00000000
C      6.43649800     2.98042200     0.00000000
C      7.65994300     2.34779300     0.00000000
C      7.73483500     0.92664300    -0.00000000
C      6.58534300     0.16694900    -0.00000000
C      5.29947300     0.78621500    -0.00000000
C      4.10474200     0.03276100    -0.00000000
C      2.84309100     0.62658800    -0.00000000
N     -0.82781400    -0.09660100    -0.00000000
H     -3.42759000    -3.82663200     0.00000000
H     -3.18710000    -1.38528100    -0.00000000
H      0.79709700    -4.60176700     0.00000000
H     -1.53214800    -5.36428300     0.00000000
H      2.53494400    -2.08778700    -0.00000000
H     -0.63556100     2.49685300     0.00000000
H      1.45565900     3.80867200     0.00000000
H      3.87943500     3.91833300     0.00000000
H      6.37564400     4.07197500     0.00000100
H      8.58111100     2.93547800     0.00000000
H      8.71282300     0.43938500    -0.00000000
H      6.64247900    -0.92475500    -0.00000000
H      4.19325200    -1.05488700    -0.00000100
H     -1.66045200     0.49422800    -0.00000000
