042
BNPAH_000135_PAH38   C24_H16_N01_B01 -1003.24204529     0.00000000     5.60742000  5296.15275919     8.43995665   229.66291852 22159.10314445    30.79158581     0.04906952     1.33524953   128.83199503    -4.70900000    -0.17305256  -108.59212059  -454.34943254    -2.79500000    -0.10271436   -64.45423169  -269.67650541     1.91400000     0.07033820    44.13788890   184.67292714
C      8.08085800     0.50945700    -0.00000200
C      6.93619200    -0.27291500    -0.00000100
C      5.64916400     0.31579800     0.00000000
C      4.43367600    -0.44021900     0.00000100
C      3.18545100     0.14884800     0.00000200
B      1.85954600    -0.64590000     0.00000200
C      0.55384200     0.14740100     0.00000100
C      0.62883600     1.56821700     0.00000100
C      1.89264400     2.25053000     0.00000200
C      3.10605600     1.59897700     0.00000200
N      4.30209500     2.30643700     0.00000100
C      5.54628800     1.74017900     0.00000000
C      6.71770500     2.53031600    -0.00000100
C      7.96183400     1.91588200    -0.00000200
C     -0.60178600     2.36957100     0.00000100
C     -0.57270900     3.78874700     0.00000100
C     -1.72823500     4.55290000     0.00000000
C     -2.97981500     3.91449300    -0.00000100
C     -3.04198500     2.53040200    -0.00000100
C     -1.87651400     1.72450900    -0.00000000
C     -1.96098800     0.26563500    -0.00000000
C     -3.20561200    -0.41044400    -0.00000100
C     -3.28320400    -1.79426000    -0.00000100
C     -2.09899900    -2.55300600    -0.00000000
C     -0.86981200    -1.91416800     0.00000100
C     -0.75708600    -0.49927900     0.00000100
H      9.06881900     0.04543200    -0.00000300
H      7.00856600    -1.36338200    -0.00000100
H      4.50451400    -1.53236900     0.00000100
H      1.93613100    -1.85059300     0.00000200
H      1.91122600     3.34033800     0.00000200
H      4.24688700     3.32161800     0.00000100
H      6.63547900     3.62033900    -0.00000000
H      8.86203500     2.53518400    -0.00000200
H      0.38258500     4.31196200     0.00000200
H     -1.66260000     5.64355000     0.00000100
H     -3.90082600     4.50258500    -0.00000200
H     -4.02277100     2.05517900    -0.00000200
H     -4.13416300     0.16134800    -0.00000200
H     -4.25823200    -2.28745100    -0.00000200
H     -2.14549500    -3.64505800     0.00000000
H      0.04424200    -2.50678900     0.00000200
