018
BNPAH_000536_PAH01   C04_H08_N03_B03  -395.78411539     0.00000000     9.68428000  1863.38878464     2.96949905    80.80418486  7796.41867493    27.40277624     0.04366910     1.18829684   114.65321579    -4.45600000    -0.16375498  -102.75780194  -429.93864332    -1.92710000    -0.07081962   -44.43998207  -185.93688500     2.52890000     0.09293536    58.31781987   244.00175833
B      0.00000000     1.27191500     1.50703000
N     -0.00000000     2.46814900     0.73029800
N     -0.00000000     2.43742700    -0.64748800
C      0.00000000     1.28106700    -1.32451500
B      0.00000000    -1.25742900    -1.62995700
B     -0.00000000    -2.68727400    -0.76279300
C      0.00000000    -2.47318100     0.73279000
N      0.00000000    -1.22803300     1.31565900
C      0.00000000    -0.02144300     0.70794600
C      0.00000000     0.01253400    -0.74372300
H     -0.00000000     1.39472100     2.70463400
H     -0.00000000     3.41019500     1.10383500
H     -0.00000000     3.33256200    -1.12515100
H      0.00000000     1.40004200    -2.41080400
H     -0.00000000    -1.06032200    -2.83312600
H     -0.00000000    -3.83377200    -1.16117600
H     -0.00000000    -3.25573100     1.50218500
H      0.00000000    -1.19142700     2.33435400
