042
BNPAH_000258_PAH70   C24_H16_N01_B01 -1003.21267872     0.00100000     5.36069000  5277.72495370     8.41059007   228.86381325 22082.00120628    30.68444741     0.04889878     1.33060357   128.38372796    -4.94510000    -0.18172907  -114.03671597  -477.12961964    -2.57520000    -0.09463686   -59.38552324  -248.46902924     2.36990000     0.08709222    54.65119273   228.66059040
C      2.77074300    -0.53474200     0.00007800
C      2.61278900    -1.91458400     0.00003200
C      1.32795100    -2.50170000     0.00000900
C      1.18130900    -3.94197700    -0.00004000
C     -0.04270900    -4.53314400    -0.00006300
C     -1.23550300    -3.72414500    -0.00004000
C     -2.49269300    -4.28021500    -0.00005200
N     -3.66020300    -3.56058900    -0.00003100
C     -4.82734100    -4.33123500    -0.00002100
C     -6.05803400    -3.77799400     0.00002000
B     -6.19472400    -2.25515300     0.00003500
C     -7.56825500    -1.58469400     0.00009100
C     -7.61552800    -0.22705500     0.00009700
C     -6.42824600     0.59792600     0.00003200
C     -6.65540900     1.99544500     0.00002300
C     -5.62511800     2.91956700    -0.00006300
C     -4.31313900     2.43019600    -0.00015300
C     -4.06492600     1.06219600    -0.00014300
C     -5.08103600     0.06252600    -0.00003600
C     -4.90601000    -1.41089300    -0.00000800
C     -3.65979100    -2.12591900    -0.00001200
C     -2.34279900    -1.57837900     0.00002100
C     -1.15241200    -2.28778500     0.00000600
C      0.17294500    -1.66163200     0.00003400
C      0.36250500    -0.26299200     0.00008100
C      1.63620600     0.29458600     0.00010300
H      3.77124900    -0.09620600     0.00009600
H      3.48876900    -2.56851600     0.00001200
H      2.08930100    -4.54995300    -0.00005700
H     -0.14227900    -5.62129300    -0.00009700
H     -2.62923200    -5.36173400    -0.00007300
H     -4.62481000    -5.40479700    -0.00003700
H     -6.90662100    -4.46964500     0.00003800
H     -8.51082100    -2.14481400     0.00013000
H     -8.56877400     0.31649800     0.00014000
H     -7.69449600     2.33657800     0.00008200
H     -5.82906700     3.99269000    -0.00007000
H     -3.46540700     3.12047500    -0.00023800
H     -2.26760500    -0.50552000     0.00007200
H     -3.01482700     0.80396900    -0.00023900
H     -0.50103100     0.40394100     0.00010200
H      1.75161600     1.38074400     0.00014000
