042
BNPAH_000168_PAH57   C24_H16_N01_B01 -1003.21833669     0.00000000     9.03483000  5281.27538791     8.41624805   229.01777465 22096.85622302    30.70508946     0.04893167     1.33149869   128.47009430    -4.28030000    -0.15729812   -98.70606366  -412.98617034    -3.03380000    -0.11149009   -69.96109056  -292.71720290     1.24650000     0.04580803    28.74497310   120.26896744
C      2.63340800     0.06724400    -0.00000100
C      2.65474900    -1.31585700    -0.00000100
C      1.45431700    -2.07423300    -0.00000000
C      1.49396300    -3.50512900     0.00000000
C      0.33159900    -4.23356700     0.00000100
C     -0.95954700    -3.61977800     0.00000100
B     -2.24168700    -4.45412800     0.00000100
C     -3.56547600    -3.69215700     0.00000000
C     -4.81894500    -4.33417400     0.00000000
C     -6.03641600    -3.65835800    -0.00000000
C     -6.06562400    -2.24741200     0.00000000
C     -7.28738300    -1.46025200    -0.00000000
C     -8.57793000    -2.04540800    -0.00000100
C     -9.72267100    -1.26542500    -0.00000100
C     -9.63764100     0.14797400    -0.00000100
C     -8.40178300     0.75884400     0.00000000
C     -7.21201000    -0.02486500     0.00000100
C     -5.94367100     0.58070000     0.00000100
N     -4.84549500    -0.18814000     0.00000100
C     -4.81069300    -1.55740500     0.00000100
C     -3.53533700    -2.24389700     0.00000100
C     -2.31269900    -1.55703200     0.00000000
C     -1.04086000    -2.18858500     0.00000000
C      0.19038000    -1.39662800    -0.00000000
C      0.20981300     0.02187200    -0.00000000
C      1.39473500     0.74164100    -0.00000100
H      3.56743500     0.63468000    -0.00000100
H      3.60760200    -1.85244400    -0.00000100
H      2.46926600    -3.99973000     0.00000000
H      0.37556500    -5.32643100     0.00000100
H     -2.21540400    -5.66580900     0.00000000
H     -4.82864400    -5.42811500    -0.00000000
H     -6.96889600    -4.22268200    -0.00000100
H     -8.67463200    -3.13114800    -0.00000200
H    -10.70315600    -1.74675600    -0.00000200
H    -10.54910900     0.74951300    -0.00000100
H     -8.31732600     1.84842700     0.00000100
H     -5.79549200     1.66028800     0.00000200
H     -3.93765800     0.27437400     0.00000200
H     -2.31105400    -0.46296300     0.00000000
H     -0.72894100     0.57864500    -0.00000000
H      1.36716900     1.83430600    -0.00000100
