038
BNPAH_000097_PAH48   C22_H14_N01_B01  -925.90016418     0.00000000     2.35211000  4852.25790708     7.73256518   210.41381604 20301.84708322    30.71049308     0.04894029     1.33173301   128.49270305    -5.26000000    -0.19330144  -121.29848254  -507.51285096    -2.38220000    -0.08754424   -54.93483747  -229.84735999     2.87780000     0.10575720    66.36364507   277.66549097
C      1.93112500     1.55519000    -0.00002700
C      0.75491200     2.36230600    -0.00006500
C     -0.53655500     1.86481500    -0.00005800
C     -0.85086500     0.45956900    -0.00000800
B      0.42764400    -0.40348700     0.00001900
N      0.23452900    -1.83321800     0.00004500
C     -0.97821400    -2.38490800     0.00003900
C     -2.16589900    -1.64172200     0.00001800
C     -3.41422300    -2.42727300     0.00000500
C     -3.43399200    -3.83546900    -0.00000100
C     -4.62815200    -4.56177900    -0.00001900
C     -5.84924200    -3.90259800    -0.00003000
C     -5.88712000    -2.49563400    -0.00002300
C     -7.14146400    -1.80161700    -0.00003000
C     -7.17843000    -0.44099400    -0.00001600
C     -5.97280400     0.33913200     0.00000400
C     -6.05911300     1.74320500     0.00002700
C     -4.89877700     2.49710400     0.00005500
C     -3.64998400     1.86956200     0.00005300
C     -3.47943700     0.47154100     0.00001900
C     -2.14649200    -0.19166800     0.00000900
C     -4.69124900    -0.31014500     0.00000400
C     -4.66310700    -1.74608300    -0.00000700
C      1.82958600     0.18551800     0.00001300
H      2.90307100     2.06181200    -0.00003700
H      0.87640900     3.44958600    -0.00010500
H     -2.79441700     2.52323200     0.00008400
H      1.02575300    -2.47282000     0.00006200
H     -1.00629900    -3.47193600     0.00005200
H     -2.50944900    -4.41089100     0.00000600
H     -4.59022600    -5.65368300    -0.00002300
H     -6.78812100    -4.46154100    -0.00004300
H     -8.06298200    -2.38902700    -0.00004400
H     -8.13269800     0.09187000    -0.00001800
H     -7.04325700     2.21832800     0.00002700
H     -4.94426400     3.58854200     0.00008100
H     -1.28926300     2.64382400    -0.00010300
H      2.74829600    -0.41455000     0.00003500
