042
BNPAH_000053_PAH61   C24_H16_N01_B01 -1003.22042864     6.81700000     3.84368000  5282.58810389     8.41834000   229.07469940 22102.34862668    30.71272153     0.04894384     1.33182965   128.50202688    -5.30270000    -0.19487063  -122.28316794  -511.63277468    -2.28280000    -0.08389135   -52.64261900  -220.25671790     3.01990000     0.11097928    69.64054894   291.37605677
C     -2.56030900     3.91754800    -0.83868400
C     -1.24176700     3.69308200    -0.58645600
B     -3.55637100     2.79515500    -0.56643800
N     -0.73740300     2.44809600    -0.23261400
C     -2.94458400     1.45184100    -0.11166800
C     -1.55269000     1.30020800    -0.21317400
C     -5.07757700     2.84263500    -0.79148500
C     -3.85741300     0.38855400     0.32915000
C     -5.81693400     1.72884700    -0.52473900
C     -5.26201100     0.53109800     0.08236800
C      0.59868400     2.36033000     0.25381800
C     -0.82518500     0.04825400    -0.50285200
C      1.26376100     1.11149500     0.27018400
C      0.57166000    -0.04952100    -0.28411100
C     -6.14793600    -0.48350500     0.51528400
C     -3.44481500    -0.71212200     1.12102400
C     -5.70155700    -1.58472000     1.23337600
C     -4.33823600    -1.68093000     1.56169100
C     -1.48244900    -1.01958600    -1.15620300
C      1.24939600    -1.23304300    -0.64588600
C     -0.79872800    -2.17468500    -1.51178200
C      0.57348900    -2.29231100    -1.23796500
C      1.24536000     3.49836100     0.77531400
C      2.54303700     3.41068100     1.27203200
C      2.57181000     1.05108100     0.79157900
C      3.21612400     2.18260000     1.27853800
H      0.72087000     4.45075000     0.83674900
H      3.01855000     4.30409500     1.68267100
H      3.08353800     0.08811100     0.82485600
H      4.22812500     2.10743300     1.68156100
H     -2.82062900     4.92028400    -1.19242800
H     -0.47187000     4.45729100    -0.69181500
H     -5.59938200     3.72503100    -1.18075300
H     -6.90013100     1.71076500    -0.70065100
H     -7.21365800    -0.36807200     0.29764400
H     -6.40649200    -2.35019500     1.56671500
H     -3.97706900    -2.51250500     2.17212600
H     -2.39515700    -0.79621900     1.40737800
H     -2.53984200    -0.92292500    -1.39914600
H     -1.32978000    -2.98167200    -2.02144700
H      1.11645000    -3.19781900    -1.51841000
H      2.32650300    -1.30723900    -0.48822300
