038
BNPAH_000147_PAH76   C22_H14_N01_B01  -925.86463310     0.00000000     6.91160000  4829.96181767     7.69703410   209.44696610 20208.56024513    30.56937859     0.04871541     1.32561371   127.90228002    -4.56320000    -0.16769451  -105.22989269  -440.28187101    -2.77410000    -0.10194630   -63.97226624  -267.65996195     1.78910000     0.06574821    41.25762645   172.62190906
C      9.31684300     1.81470600    -0.00000100
C      9.31204300     0.42968300    -0.00000100
C      8.07182100    -0.23165600    -0.00000100
C      6.85548400     0.46073300     0.00000000
C      5.60834300    -0.22774100     0.00000100
C      4.38698100     0.43218700     0.00000100
B      4.38885800     1.99179800     0.00000100
C      5.73619400     2.69330900     0.00000100
C      6.88146800     1.92455900     0.00000000
N      8.15578200     2.49614100    -0.00000000
C      3.02137300     2.67063300     0.00000100
C      1.86100500     1.91630000     0.00000100
C      0.56540400     2.56774400     0.00000000
C     -0.60289100     1.87621700    -0.00000100
C     -0.61310000     0.43172200    -0.00000100
C      0.64119600    -0.26834800     0.00000000
C      0.62138200    -1.70117600     0.00000000
C      1.86293500    -2.39677900     0.00000100
C      3.05094800    -1.70885400     0.00000100
C      3.11075900    -0.28284400     0.00000100
C      1.88790600     0.44526300     0.00000000
C     -0.61887900    -2.39076500    -0.00000000
C     -1.81654900    -1.69450100    -0.00000100
C     -1.81224200    -0.28845100    -0.00000100
H     10.23009900     2.41155700    -0.00000200
H     10.25440800    -0.11703500    -0.00000200
H      8.04699000    -1.32498100    -0.00000100
H      5.68136700    -1.32067900     0.00000000
H      5.85797900     3.78488400     0.00000100
H      8.18687500     3.51301900    -0.00000000
H      2.89003400     3.76056900     0.00000100
H      0.55932900     3.66123300     0.00000000
H     -1.56247500     2.40060700    -0.00000100
H      1.85689000    -3.49011400     0.00000100
H      3.98185700    -2.27826600     0.00000200
H     -0.61166800    -3.48395200    -0.00000000
H     -2.76641300    -2.23484800    -0.00000200
H     -2.75808000     0.26000600    -0.00000200
