042
BNPAH_000164_PAH68   C24_H16_N01_B01 -1003.16941650     0.00300000    14.69298000  5250.57749681     8.36732785   227.68658811 21968.41624665    30.52661335     0.04864725     1.32375923   127.72335026    -4.04720000    -0.14873186   -93.33064991  -390.49543924    -3.22310000    -0.11844674   -74.32645230  -310.98187641     0.82410000     0.03028512    19.00419762    79.51356283
C      2.05016600     2.07408000    -0.00023500
C      3.11614100     1.20174500     0.00016300
C      2.93574800    -0.20892200     0.00018600
C      4.10448700    -1.01522300     0.00047500
C      3.99042000    -2.37788400     0.00040000
C      2.72621200    -3.03102200     0.00014500
B      2.78822500    -4.58866600     0.00004100
C      1.49146500    -5.31010200    -0.00019500
C      0.29475600    -4.58403900    -0.00020000
C     -0.93421400    -5.30400900    -0.00030500
C     -2.19043400    -4.71640900    -0.00017700
C     -3.41836700    -5.42905200    -0.00026000
C     -4.64271400    -4.75779100    -0.00006500
C     -5.87873600    -5.43700200    -0.00014100
N     -7.03912900    -4.76480100     0.00005400
C     -7.12607400    -3.38908400     0.00034000
C     -5.95951900    -2.65707900     0.00043100
C     -4.69116500    -3.28896500     0.00023800
C     -3.47485900    -2.59130800     0.00032000
C     -2.24150700    -3.25810700     0.00011400
C     -1.02305800    -2.53210500     0.00018000
C      0.25565400    -3.08658100    -0.00003800
C      1.51159400    -2.28452500    -0.00001300
C      1.61627900    -0.81026400    -0.00013300
C      0.55690600     0.15111900    -0.00063000
C      0.75598700     1.52267700    -0.00066900
H      2.20180800     3.15584200    -0.00026500
H      4.14242100     1.57893300     0.00044400
H      5.08145000    -0.52366700     0.00069200
H      4.88371600    -3.00708900     0.00055100
H      3.87488700    -5.12637300     0.00013900
H      1.38431600    -6.40132100    -0.00030300
H     -0.86243100    -6.39506800    -0.00045700
H     -3.40173700    -6.52225100    -0.00047100
H     -5.94526000    -6.52590800    -0.00035900
H     -7.90367900    -5.30005900    -0.00001100
H     -8.12824700    -2.96574300     0.00047600
H     -6.02084200    -1.56720600     0.00065700
H     -3.49023600    -1.49772200     0.00054300
H     -0.48111800    -0.14385500    -0.00107900
H     -1.16380600    -1.46395600     0.00047800
H     -0.11856700     2.17877000    -0.00106300
