038
BNPAH_000203_PAH66   C22_H14_N01_B01  -925.85019566     0.00400000     6.21545000  4820.90218533     7.68259665   209.05410326 20170.65474342    30.51203915     0.04862403     1.32312724   127.66237180    -4.59790000    -0.16896971  -106.03009370  -443.62991206    -2.61700000    -0.09617298   -60.34945415  -252.50211615     1.98090000     0.07279673    45.68063956   191.12779591
C      4.14032900    -2.95475600    -0.00029000
C      2.98645000    -3.75314100    -0.00080000
C      1.71413300    -3.19374900    -0.00075700
C      1.46637100    -1.78337200    -0.00014900
C      2.67608700    -0.99664600     0.00016600
C      3.96538500    -1.58583500     0.00014800
C      2.60456700     0.42252200     0.00039200
C      1.42240500     1.12283000     0.00026700
B      1.48081500     2.67414300     0.00033900
C      0.14111500     3.37488000     0.00013300
C     -0.98634800     2.58784900    -0.00006800
C     -1.02870800     1.14313100    -0.00008400
C     -2.30705600     0.47883700    -0.00023300
C     -3.55248100     1.16524600    -0.00049600
C     -4.76176800     0.48983200    -0.00052500
C     -4.80500800    -0.90982400    -0.00024700
C     -3.61557000    -1.64117700     0.00004100
C     -2.34141100    -0.95390300    -0.00000800
C     -1.12029300    -1.70046300     0.00022000
N     -1.26349900    -3.07082500     0.00075100
C     -2.45368300    -3.75070200     0.00084400
C     -3.62972600    -3.08045900     0.00044400
C      0.17558900    -1.07122600     0.00003400
C      0.17245400     0.37883500     0.00006400
H      5.13560100    -3.40318400    -0.00033000
H      3.07481600    -4.84240100    -0.00128200
H     -0.42260600    -3.62186500     0.00123000
H      4.82750100    -0.91403500     0.00044400
H      3.54705800     0.97831900     0.00057400
H      2.55842400     3.22512000     0.00052400
H     -0.00585200     4.46003100     0.00013500
H     -1.95777900     3.08869600    -0.00020300
H     -3.57125300     2.25331300    -0.00068200
H     -5.69384100     1.06054500    -0.00073700
H     -5.75948200    -1.44059900    -0.00022300
H      0.94618700    -3.96178000    -0.00141200
H     -2.37162900    -4.83818000     0.00126800
H     -4.57664400    -3.62056500     0.00051000
