042
BNPAH_000313_PAH71   C24_H16_N01_B01 -1003.30166158     0.00000000     1.07861000  5333.56254848     8.49957295   231.28516051 22315.62570284    31.00908458     0.04941612     1.34468117   129.74200988    -5.26660000    -0.19354398  -121.45068216  -508.14965416    -1.94920000    -0.07163178   -44.94962019  -188.06921085     3.31740000     0.12191220    76.50106198   320.08044330
C      8.83009200    -1.81755400     0.00000200
C      7.62186900    -2.48727400     0.00000200
C      6.38948000    -1.78115300     0.00000000
C      5.13895200    -2.46284900    -0.00000000
C      3.96029600    -1.76186300    -0.00000100
C      3.91708800    -0.33363500    -0.00000200
C      2.63999000     0.39537700    -0.00000200
C      1.40190600    -0.26034600    -0.00000200
C      0.18079000     0.43983800    -0.00000100
C      0.17393300     1.87425100    -0.00000100
C      1.42171700     2.52241300    -0.00000200
C      2.64013900     1.83131100    -0.00000200
B      3.98661100     2.56998100    -0.00000200
N      5.14364300     1.75131900    -0.00000200
C      5.14336700     0.36200900    -0.00000100
C      6.40024800    -0.34773000    -0.00000000
C      7.66211300     0.30907800     0.00000100
C      8.84726300    -0.40402900     0.00000200
C     -1.10161400     2.58408600    -0.00000000
C     -2.31620500     1.83050800     0.00000100
C     -3.55991500     2.50734600     0.00000200
C     -3.61998400     3.89182000     0.00000200
C     -2.42580800     4.63908000     0.00000200
C     -1.19571700     3.99645000     0.00000100
C     -2.26015400     0.39230700    -0.00000000
C     -1.06976800    -0.27244200    -0.00000100
H      9.76996200    -2.37446800     0.00000300
H      7.59511100    -3.58010800     0.00000200
H      5.13188700    -3.55536000     0.00000000
H      3.02256100    -2.31771500    -0.00000100
H      1.34698600    -1.35034200    -0.00000200
H      1.46285600     3.61352800    -0.00000200
H      4.12020000     3.76705400    -0.00000300
H      6.06306000     2.17906000    -0.00000200
H      7.72447900     1.40024300     0.00000000
H      9.80055500     0.12946700     0.00000200
H     -4.47887300     1.91488800     0.00000200
H     -4.58622700     4.40173800     0.00000300
H     -2.46573500     5.73101100     0.00000200
H     -0.28660000     4.59957300     0.00000000
H     -3.20278100    -0.16152200     0.00000000
H     -1.04475200    -1.36535200    -0.00000100
