018
BNPAH_001651_PAH01   C02_H08_N04_B04  -399.32688098     0.00000000     2.43358000  1860.77121987     2.96532769    80.69067651  7785.46678394    27.36428265     0.04360776     1.18662760   114.49215861    -4.89020000    -0.17971154  -112.77069189  -471.83257486    -1.97710000    -0.07265709   -45.59300947  -190.76115164     2.91310000     0.10705445    67.17768241   281.07142322
B      0.00000000     1.44522500     1.55756000
N      0.00000000     2.56482300     0.69682400
N     -0.00000000     2.43695600    -0.68741000
B     -0.00000000     1.22857100    -1.39942800
C      0.00000000    -1.21586300    -1.42528200
B      0.00000000    -2.56428600    -0.77055400
N     -0.00000000    -2.53353800     0.67902300
C     -0.00000000    -1.41490800     1.43613300
B     -0.00000000    -0.04784100     0.79022500
N      0.00000000    -0.06031500    -0.69011200
H      0.00000000     1.71355000     2.73653200
H      0.00000000     3.53564300     0.99540800
H     -0.00000000     3.32328300    -1.18096100
H     -0.00000000     1.28491200    -2.59981000
H      0.00000000    -1.06362800    -2.51032100
H      0.00000000    -3.63004500    -1.32844100
H     -0.00000000    -3.42159400     1.18197600
H     -0.00000000    -1.58094500     2.51863800
