042
BNPAH_000436_PAH74   C24_H16_N01_B01 -1003.21149434     0.00000000     8.45308000  5276.98174255     8.40940569   228.83158457 22078.89161083    30.68012641     0.04889189     1.33041619   128.36564890    -4.28300000    -0.15739735   -98.76832714  -413.24668074    -3.34540000    -0.12294118   -77.14675732  -322.78203263     0.93760000     0.03445616    21.62156982    90.46464811
C      8.14836500    -2.82880500    -0.00000200
C      6.97688100    -3.57080700    -0.00000200
C      5.71022300    -2.93678800    -0.00000100
C      4.47625400    -3.65192800     0.00000000
C      3.25360800    -3.00043600     0.00000100
C      1.99486400    -3.68281800     0.00000100
C      0.78196100    -3.02452600     0.00000200
C      0.75680200    -1.56279600     0.00000200
C      2.01084900    -0.87430000     0.00000200
C      3.21035600    -1.55138000     0.00000100
N      4.43624800    -0.89286800     0.00000100
C      5.65863100    -1.50682600    -0.00000000
C      6.85726200    -0.76129000    -0.00000100
C      8.08011100    -1.41994300    -0.00000200
C     -0.49449800    -0.87848500     0.00000200
C     -1.76607300    -1.60721500     0.00000100
C     -1.80783400    -3.00817900     0.00000100
B     -0.55421500    -3.82853700     0.00000200
C     -3.01196300    -0.80834700    -0.00000000
C     -4.28982600    -1.41386400    -0.00000200
C     -5.46057800    -0.66306500    -0.00000300
C     -5.40010600     0.74079100    -0.00000300
C     -4.16179600     1.36767700    -0.00000100
C     -2.96312500     0.61810500     0.00000000
C     -1.68615700     1.27810100     0.00000200
C     -0.52865100     0.55967600     0.00000200
H      9.11867700    -3.32848000    -0.00000300
H      7.01160900    -4.66293300    -0.00000200
H      4.49920300    -4.74509000    -0.00000000
H      2.00725700    -4.77678300     0.00000100
H      2.04372300     0.21631600     0.00000200
H      4.41825600     0.12315800     0.00000100
H      6.81440200     0.33081200    -0.00000000
H      9.00146000    -0.83288700    -0.00000200
H     -2.79342700    -3.47936600     0.00000100
H     -0.52309800    -5.03944300     0.00000200
H     -4.37055200    -2.50068600    -0.00000200
H     -6.42833300    -1.17044000    -0.00000400
H     -6.31860800     1.33306000    -0.00000400
H     -4.09583100     2.45931900    -0.00000100
H     -1.66068900     2.37086100     0.00000200
H      0.41177100     1.11142300     0.00000300
