042
BNPAH_000374_PAH71   C24_H16_N01_B01 -1003.21477716     0.00000000    12.70234000  5279.04174733     8.41268852   228.92091483 22087.51067083    30.69210318     0.04891098     1.33093555   128.41575971    -4.16320000    -0.15299478   -96.00567348  -401.68773786    -3.12220000    -0.11473873   -71.99964300  -301.24650633     1.04100000     0.03825604    24.00603048   100.44123153
C      8.88295800    -1.97027400     0.00000200
C      7.63416200    -2.57383200     0.00000100
C      6.44846700    -1.79337400     0.00000000
C      5.16074100    -2.43687100    -0.00000000
C      3.96313500    -1.75544000    -0.00000100
C      3.89945700    -0.32772000    -0.00000100
C      2.64839000     0.39127900    -0.00000100
C      1.39844400    -0.23437100    -0.00000100
C      0.18032600     0.48440900    -0.00000100
C      0.17256900     1.93805300    -0.00000100
C      1.41248400     2.56658600    -0.00000100
C      2.63804500     1.86398100    -0.00000100
C      3.85923500     2.59519000    -0.00000200
C      5.09845800     1.98162300    -0.00000200
B      5.21439200     0.45121400    -0.00000100
C      6.53693800    -0.36127800    -0.00000000
C      7.83045500     0.21254100     0.00000000
C      8.98444800    -0.56401700     0.00000100
C     -1.11257400     2.61889800     0.00000000
C     -2.31047600     1.85166100     0.00000000
C     -3.58119800     2.44940900     0.00000100
C     -3.69115100     3.83497500     0.00000200
C     -2.52461100     4.62043700     0.00000100
C     -1.26866300     4.02587800     0.00000100
N     -2.20540600     0.45773200    -0.00000000
C     -1.03558400    -0.19644600    -0.00000100
H      9.78840400    -2.58355300     0.00000300
H      7.55248600    -3.66535300     0.00000200
H      5.14634400    -3.53165400     0.00000000
H      3.04979200    -2.36291100    -0.00000100
H      1.34117500    -1.32509200    -0.00000100
H      1.46838700     3.65770500    -0.00000100
H      3.77119100     3.68899000    -0.00000200
H      5.96774800     2.65209800    -0.00000200
H      7.92626800     1.30279300    -0.00000000
H      9.96946700    -0.08899500     0.00000200
H     -4.47473000     1.81867900     0.00000100
H     -4.67634500     4.30491100     0.00000200
H     -2.60432600     5.70962900     0.00000200
H     -0.37946300     4.65724000     0.00000000
H     -3.06931000    -0.07770300    -0.00000000
H     -1.08750800    -1.28703500    -0.00000100
