038
BNPAH_000244_PAH29   C22_H14_N01_B01  -925.86370381     0.00000000     5.90148000  4829.37867417     7.69610480   209.42167860 20206.12037273    30.56568781     0.04870952     1.32545366   127.88683780    -4.40160000    -0.16175582  -101.50330813  -424.68984122    -2.74160000    -0.10075194   -63.22279843  -264.52418863     1.66000000     0.06100388    38.28050970   160.16565258
C      7.50824300     1.88619000    -0.00000000
C      7.47814400     0.47027400    -0.00000000
C      6.27094500    -0.20326200    -0.00000000
C      5.03495800     0.50114500     0.00000000
C      5.06389100     1.94008000    -0.00000000
C      6.32492200     2.59844700    -0.00000000
C      3.84512600     2.66991400     0.00000000
C      2.59579800     2.06087800     0.00000000
C      1.37223700     2.83626800     0.00000000
C      0.12483900     2.27247400     0.00000000
B     -0.02453200     0.73183300     0.00000000
C      1.28102500    -0.05224200     0.00000000
C      1.24757500    -1.50388300     0.00000000
C      2.48303100    -2.17681300     0.00000000
N      3.63601000    -1.50379200     0.00000000
C      3.74985800    -0.11861600     0.00000000
C      2.53203800     0.60946700     0.00000000
C      0.03558300    -2.21373400     0.00000000
C     -1.22185000    -1.55745500     0.00000000
C     -2.42044700    -2.33821700    -0.00000000
C     -3.66133700    -1.73655600    -0.00000100
C     -3.76600500    -0.32298600    -0.00000000
C     -2.61926500     0.45431200     0.00000000
C     -1.31602400    -0.11060300     0.00000000
H      8.46703100     2.40927000    -0.00000100
H      8.41362800    -0.09392700    -0.00000000
H      6.29246200    -1.29803200     0.00000000
H      6.33941500     3.69144000    -0.00000000
H      3.90041500     3.76246400    -0.00000000
H      1.50346300     3.92537800     0.00000000
H     -0.72514500     2.96628300     0.00000000
H      2.56250200    -3.26652300     0.00000000
H      4.50023100    -2.03928900     0.00000000
H      0.05841900    -3.30769800     0.00000000
H     -2.33847500    -3.42932500    -0.00000000
H     -4.56711100    -2.34890200    -0.00000100
H     -4.75285200     0.14732500    -0.00000100
H     -2.71572400     1.54380500     0.00000000
