038
BNPAH_000036_PAH65   C22_H14_N01_B01  -925.84998645     0.00000000     7.87331000  4820.77090320     7.68238744   209.04841033 20170.10545899    30.51120825     0.04862271     1.32309120   127.65889532    -4.61610000    -0.16963855  -106.44979568  -445.38594512    -2.84480000    -0.10454447   -65.60264698  -274.48147498     1.77130000     0.06509407    40.84714869   170.90447013
C     -2.79685700     2.80846600     0.00000000
B     -4.06352700     1.98299600     0.00000100
C     -1.50663300     2.23354500    -0.00000000
C     -3.80971800     0.49935700     0.00000100
C     -2.49753100    -0.04621900     0.00000000
C     -1.32746100     0.80193500    -0.00000000
C     -2.30377900    -1.45608200     0.00000000
C     -0.02758200     0.21106100    -0.00000100
C     -1.03784700    -2.01706200    -0.00000000
C      0.09194600    -1.18765000    -0.00000100
C     -0.31650400     3.03822800    -0.00000100
C      1.00749400     2.49789800    -0.00000100
C      1.16888900     1.06482700    -0.00000100
N     -0.43174900     4.39992600    -0.00000100
C      0.62199100     5.26390400    -0.00000100
C      1.89854400     4.78752200    -0.00000000
C      2.13631700     3.37340800    -0.00000000
C      3.46574900     2.82569700    -0.00000000
C      2.46487600     0.56636700    -0.00000000
C      3.61169800     1.39903600    -0.00000000
C      4.64008900     3.62800200     0.00000000
C      4.92160300     0.83878800     0.00000000
C      5.89747300     3.05566400     0.00000100
C      6.04014000     1.64610900     0.00000100
H      5.02434500    -0.24926700     0.00000000
H      4.55752800     4.71570400     0.00000000
H      7.03816100     1.20167400     0.00000100
H      6.78517100     3.69210000     0.00000100
H     -2.86832800     3.90779000     0.00000000
H     -5.16706800     2.48162200     0.00000100
H     -4.61215600    -0.25064600     0.00000100
H      2.63523600    -0.51053100    -0.00000000
H     -1.38144600     4.76654700    -0.00000000
H      0.37279400     6.32505500    -0.00000100
H      2.72247400     5.49776000    -0.00000000
H     -3.19000900    -2.09635900     0.00000000
H     -0.91223300    -3.10240300    -0.00000000
H      1.07828000    -1.65273800    -0.00000100
