038
BNPAH_000429_PAH48   C22_H14_N01_B01  -925.84628507     0.00000000     6.69284000  4818.44824744     7.67868606   208.94769044 20160.38746729    30.49650790     0.04859928     1.32245374   127.59738905    -4.69200000    -0.17242782  -108.20009127  -452.70918188    -2.61250000    -0.09600760   -60.24568168  -252.06793216     2.07950000     0.07642022    47.95440959   200.64124973
C      1.88934900     1.51305900    -0.00003900
C      0.74570600     2.33326500    -0.00008200
C     -0.52636300     1.78496500    -0.00006700
C     -0.77648100     0.38520800    -0.00000700
C      0.41080500    -0.43159000     0.00002200
C      0.30365100    -1.84698400     0.00005400
C     -0.92567500    -2.42959900     0.00004900
C     -2.13604900    -1.66768900     0.00002500
C     -3.38288800    -2.42406400     0.00000900
C     -3.42688400    -3.83702200     0.00000200
C     -4.62536200    -4.55436000    -0.00002000
C     -5.84037100    -3.88641400    -0.00003600
C     -5.84761700    -2.47604100    -0.00002800
C     -7.06814900    -1.77228800    -0.00003900
N     -7.04204800    -0.44431900    -0.00002300
C     -5.92132000     0.34771400     0.00000200
C     -6.14751400     1.74171500     0.00002600
C     -5.07269900     2.58953100     0.00006300
B     -3.64950700     2.03592200     0.00006900
C     -3.40574400     0.50269100     0.00002500
C     -2.11900100    -0.23875700     0.00001500
C     -4.61439200    -0.27972800     0.00000500
C     -4.61850900    -1.71803500    -0.00000700
C      1.70807300     0.14586600     0.00001000
H      2.89210300     1.94717600    -0.00005000
H      0.85108100     3.42126400    -0.00012900
H     -2.82823300     2.90331900     0.00011600
H      1.21276800    -2.45335900     0.00007400
H     -0.97714500    -3.51587000     0.00006500
H     -2.50388800    -4.41253100     0.00001200
H     -4.59725600    -5.64630600    -0.00002500
H     -6.78783000    -4.43020200    -0.00005200
H     -8.04211400    -2.26103300    -0.00005500
H     -7.92925700     0.05708300    -0.00002600
H     -7.18973800     2.09151800     0.00002100
H     -5.26990100     3.66679400     0.00009000
H     -1.36328900     2.46406100    -0.00010600
H      2.56691800    -0.53087300     0.00003600
