042
BNPAH_000055_PAH58   C24_H16_N01_B01 -1003.23814700     0.00000000     3.80635000  5293.70654494     8.43605836   229.55684063 22148.86818403    30.77736363     0.04904685     1.33463279   128.77248943    -5.25150000    -0.19298907  -121.10246789  -506.69272563    -2.02320000    -0.07435123   -46.65610074  -195.20912549     3.22830000     0.11863784    74.44636715   311.48360014
C      2.95028600     2.52703300    -0.00001000
C      2.86926000     1.16610800     0.00000400
B      1.49065200     0.50461700     0.00000700
C      0.22635300     1.42039500    -0.00000300
C      0.52818900     2.77926700    -0.00002000
N      1.79981400     3.27356800    -0.00002300
C     -1.12988300     0.81523100     0.00000200
C     -2.42563900     1.49846900     0.00000300
C     -2.58730600     2.92171400     0.00001400
C     -3.80528700     3.55276100     0.00001500
C     -5.03206900     2.83651200     0.00000400
C     -4.95294300     1.42073000    -0.00000400
C     -6.18217500     0.67920300    -0.00001300
C     -7.40176200     1.29983200    -0.00001400
C     -7.51466000     2.72496100    -0.00000600
C     -8.77968800     3.36660300    -0.00000700
C     -8.87682300     4.74639800     0.00000200
C     -7.70118700     5.52786300     0.00001200
C     -6.45501300     4.92232300     0.00001200
C     -6.31981300     3.50958000     0.00000400
C     -3.65948400     0.75349300    -0.00000300
C     -3.60306200    -0.66423100    -0.00000400
C     -2.39833400    -1.31095500     0.00000100
C     -1.16085300    -0.61363000     0.00000500
C      0.01357600    -1.46787900     0.00001300
C      1.29274800    -1.01179800     0.00001600
H      3.87270600     3.11443900    -0.00001400
H      3.81107600     0.60865000     0.00001200
H     -1.73047300     3.57729300     0.00002600
H      1.89282800     4.28381000    -0.00003600
H     -0.18804200     3.59268700    -0.00003600
H     -3.81562800     4.64330800     0.00002400
H     -6.16005500    -0.40953100    -0.00002000
H     -8.31761100     0.70295800    -0.00002200
H     -9.68092600     2.74758200    -0.00001400
H     -9.85607100     5.23102300     0.00000200
H     -7.77306900     6.61823100     0.00001900
H     -5.56570700     5.55397400     0.00002000
H     -4.51711600    -1.25522000    -0.00000800
H     -2.36938200    -2.40357800     0.00000200
H     -0.20457800    -2.54332900     0.00001600
H      2.11140800    -1.74047400     0.00002300
