038
BNPAH_000325_PAH62   C22_H14_N01_B01  -925.82332358     0.00900000    11.55669000  4804.03969819     7.65572457   208.32287661 20100.10209723    30.40531455     0.04845395     1.31849922   127.21583608    -4.73680000    -0.17407419  -109.23320382  -457.03172480    -3.13820000    -0.11532672   -72.36861177  -302.79027165     1.59860000     0.05874747    36.86459205   154.24145315
C      4.68401900     1.93661600     0.00102100
C      4.70561200     0.55424600     0.00216900
N      3.55213900    -0.14612900     0.00181200
C      2.26637800     0.36378900     0.00024900
C      2.23423600     1.81570000    -0.00044000
C      3.43064300     2.55479900    -0.00020200
C      0.98426200     2.45574200    -0.00113300
C     -0.19225400     1.73129800    -0.00089700
C     -1.43192600     2.45260500    -0.00112200
C     -2.61387100     1.78707100    -0.00065300
C     -2.67609200     0.34929900     0.00001600
C     -1.43133900    -0.40825500     0.00007000
C     -1.49299200    -1.85570800     0.00064000
C     -2.72729700    -2.51007900     0.00125400
B     -4.05400100    -1.77912700     0.00130000
C     -3.92756500    -0.26528900     0.00058400
C     -0.21870000    -2.59063200     0.00021500
C     -0.26159400    -4.00760900     0.00027200
C      0.86633900    -4.80510400    -0.00071700
C      2.11559700    -4.17945000    -0.00199200
C      2.19010600    -2.79431500    -0.00195600
C      1.05587300    -1.92512800    -0.00056400
C      1.09045400    -0.44327500    -0.00024000
C     -0.18258500     0.26472300    -0.00035100
H      5.61385200     2.50430300     0.00128700
H      5.62077900    -0.03877700     0.00344200
H      3.22527100    -2.46551500    -0.00354200
H      3.35848400     3.64497100    -0.00087400
H      0.94819900     3.54740100    -0.00156800
H     -1.38994500     3.54437900    -0.00156900
H     -3.56068100     2.33359500    -0.00073300
H     -2.71889300    -3.60233300     0.00165800
H     -5.11787200    -2.35850400     0.00181100
H     -4.78447100     0.42108300     0.00048500
H     -1.23345400    -4.49465300     0.00099500
H      0.77856200    -5.89363600    -0.00071000
H      3.03892600    -4.76333800    -0.00310200
H      3.63488900    -1.15297300     0.00308300
