042
BNPAH_000606_PAH56   C24_H16_N01_B01 -1003.20967114     3.21400000     5.53287000  5275.83767087     8.40758250   228.78197292 22074.10481492    30.67347483     0.04888129     1.33012775   128.33781869    -4.67360000    -0.17175163  -107.77577719  -450.93385176    -2.48970000    -0.09149479   -57.41384639  -240.21953328     2.18390000     0.08025685    50.36193080   210.71431848
C      1.28253600     0.41306800     0.25144600
C      2.58987200     0.23258400    -0.25172400
C      3.18100500    -1.02856900    -0.33172500
C      4.54496400    -1.16624900    -0.75150400
C      5.16177200    -2.37148600    -0.73115500
N      4.46120500    -3.53552200    -0.40883800
C      5.18952900    -4.71847500    -0.30060800
C      4.60276300    -5.90570600    -0.02230300
C      3.17019400    -5.99541900     0.03269100
C      2.41294400    -4.78490100    -0.12380500
C      1.03403100    -4.90767000    -0.32346700
C      0.37273300    -6.14710900    -0.23839700
C     -1.04774600    -6.22712500    -0.44351400
C     -1.70660900    -7.41704300    -0.34393400
C     -1.00732300    -8.63379200    -0.02553700
C     -1.70489200    -9.86041200     0.09383100
C     -1.03917200   -11.03390400     0.40971500
C      0.35391400   -11.01115800     0.61865400
C      1.05841900    -9.82120300     0.50489800
C      0.40732200    -8.60764400     0.17864900
C      1.11748000    -7.33939700     0.05038800
C      2.51433500    -7.22670400     0.14689700
C      3.08895500    -3.48511200    -0.14809500
C      2.45036000    -2.23771000     0.04284400
B      1.06256500    -2.05082500     0.71780200
C      0.51820800    -0.63982100     0.74304900
H      0.89550100     1.43966500     0.27844700
H      3.17295200     1.10309800    -0.56550800
H      5.11970500    -0.28455300    -1.04320400
H      6.21445700    -2.52208800    -0.96801100
H      6.26407300    -4.60035200    -0.43827800
H      5.21875700    -6.79904600     0.08803500
H      0.44996500    -4.02328200    -0.57010700
H     -1.58984100    -5.30657200    -0.67219400
H     -2.78765700    -7.46597700    -0.49687700
H     -2.78629500    -9.86546100    -0.06603300
H     -1.59115900   -11.97235300     0.50019600
H      0.88274200   -11.93235000     0.87421100
H      2.13536500    -9.82864900     0.68038200
H      3.12933900    -8.11852000     0.27803300
H      0.49068600    -2.96181700     1.26596800
H     -0.46262500    -0.38928900     1.16363400
