042
BNPAH_000150_PAH71   C24_H16_N01_B01 -1003.21309083     0.00000000    11.60236000  5277.98355623     8.41100218   228.87502732 22083.08319927    30.68595091     0.04890118     1.33066876   128.39001861    -4.18210000    -0.15368934   -96.44151784  -403.51131065    -3.23290000    -0.11880688   -74.55244567  -311.92743268     0.94920000     0.03488246    21.88907217    91.58387797
C      8.93374700    -1.79244500    -0.00000200
C      7.72733800    -2.47702400    -0.00000200
C      6.48509300    -1.79654100    -0.00000000
C      5.26088000    -2.56583200     0.00000000
C      4.00724300    -2.00922100     0.00000100
B      3.88890000    -0.48188100     0.00000100
C      2.55473400     0.33223600     0.00000200
C      1.29838900    -0.26348700     0.00000100
C      0.11808700     0.49959400     0.00000100
C      0.14778200     1.94147100     0.00000100
C      1.40258100     2.54061100     0.00000100
C      2.60842000     1.79139700     0.00000200
C      3.86750900     2.43379700     0.00000200
C      5.08035400     1.73772300     0.00000200
C      5.18463800     0.32902600     0.00000100
C      6.46803500    -0.35943800     0.00000000
C      7.72051400     0.30712800    -0.00000000
C      8.92441600    -0.38413900    -0.00000200
C     -1.12897600     2.65408300    -0.00000000
C     -2.35027100     1.90195300    -0.00000100
C     -3.60354500     2.56564400    -0.00000100
C     -3.66451000     3.94947900    -0.00000200
C     -2.46972900     4.69553100    -0.00000100
C     -1.23146500     4.06077400    -0.00000000
C     -2.28709700     0.48325200    -0.00000000
N     -1.10287700    -0.13025100     0.00000100
H      9.88050100    -2.33847200    -0.00000300
H      7.71944900    -3.57140200    -0.00000200
H      5.39010900    -3.65641600    -0.00000000
H      3.15870100    -2.70714600     0.00000100
H      1.21568200    -1.35621300     0.00000200
H      1.47965100     3.63020000     0.00000100
H      3.88801500     3.52766600     0.00000200
H      5.98543000     2.35632500     0.00000200
H      7.74557100     1.39899900    -0.00000000
H      9.86767500     0.16897800    -0.00000200
H     -4.51954400     1.96932600    -0.00000200
H     -4.63047900     4.45838200    -0.00000300
H     -2.51325400     5.78704800    -0.00000200
H     -0.32379800     4.66522200    -0.00000000
H     -3.17655700    -0.14639400    -0.00000000
H     -1.08432300    -1.14955400     0.00000100
