030
BNPAH_000021_PAH05   C16_H12_N01_B01  -696.09636435     0.00300000     7.32040000  3661.48566421     5.83494882   158.77704477 15319.65601905    30.51238054     0.04862457     1.32314204   127.66380018    -4.39400000    -0.16147652  -101.32804797  -423.95655269    -3.03190000    -0.11142027   -69.91727552  -292.53388077     1.36210000     0.05005625    31.41077245   131.42267192
C     -3.77686400     0.59585900    -0.20684100
B     -2.56111400     1.48013200    -0.19519000
C     -1.21411700     0.72484200    -0.02014300
C     -0.01610800     1.39784600     0.00959900
N      1.20938400     0.78542200     0.16157000
C      2.36528000     1.53767600     0.18038000
C      3.61358500     0.97561300     0.32906600
C      4.81455000     1.77046400     0.34718100
C      6.03442500     1.17181900     0.49696800
C      6.14187100    -0.25590900     0.63867900
C      5.02630000    -1.04884300     0.62698600
C      3.71893700    -0.47181900     0.47247600
C      2.55044500    -1.21619500     0.45208500
C      1.26733900    -0.63112800     0.29847300
C      0.07533800    -1.35116000     0.27372200
C     -1.18802100    -0.73857200     0.11870000
C     -2.39583000    -1.45159700     0.09176300
C     -3.62984900    -0.79259800    -0.06559400
H     -4.80115400     0.96861100    -0.32117500
H     -2.56457600     2.68744100    -0.30835400
H      0.03207400     2.48455400    -0.08830000
H      2.21636900     2.61214400     0.06845200
H      4.73142200     2.85464100     0.23943400
H      5.10953200    -2.13294200     0.73471100
H      2.58892800    -2.30222400     0.55655700
H      0.14933400    -2.43585100     0.38082100
H     -2.37174200    -2.53977600     0.19537100
H     -4.52334300    -1.43057200    -0.07525900
H      6.94310300     1.77771700     0.51022200
H      7.13090300    -0.70428600     0.75665000
