038
BNPAH_000362_PAH46   C22_H14_N01_B01  -925.87794494     0.00100000     3.40152000  4838.31512236     7.71034594   209.80919967 20243.51047195    30.62224761     0.04879966     1.32790633   128.12348400    -4.85410000    -0.17838489  -111.93820611  -468.34945434    -2.56220000    -0.09415911   -59.08573612  -247.21471991     2.29190000     0.08422577    52.85246999   221.13473443
C     -2.61037800    -0.49816900    -0.05022600
C     -2.61112600     0.91089400    -0.06183900
C     -1.41449600     1.61288200    -0.05616300
C     -0.16391100     0.94758800    -0.03870400
C     -0.17119600    -0.48071900    -0.02704400
C      1.07693000    -1.18658000    -0.00934900
C      2.27001800    -0.52197500    -0.00346500
C      2.34179700     0.91196500    -0.01453200
C      3.60128600     1.60258700    -0.00821100
C      4.86943300     0.92843900     0.00932900
C      6.05761000     1.61484000     0.01495900
C      6.09521100     3.04847800     0.00358700
C      7.30461400     3.78000000     0.00901100
C      7.35644700     5.18745400    -0.00204200
C      6.20920100     5.98649500    -0.01940100
B      4.86534500     5.29030100    -0.02636600
C      3.48254700     5.91784700    -0.04452500
N      2.39296200     5.13174900    -0.04842600
C      2.38835900     3.73851200    -0.03714800
C      1.17182900     3.06401500    -0.04321800
C      1.11458900     1.65619200    -0.03229200
C      3.63532400     3.03276200    -0.01956700
C      4.85613900     3.76012900    -0.01394600
C     -1.40444400    -1.17847100    -0.03309700
H     -3.55470600    -1.04754900    -0.05473900
H     -3.55799400     1.45601200    -0.07539500
H     -1.45325100     2.70317000    -0.06552500
H      1.05701300    -2.27938500    -0.00056600
H      3.19377800    -1.10014400     0.01005900
H      4.89674800    -0.16151600     0.01850100
H      7.00008300     1.05958400     0.02841700
H      1.46974700     5.56281300    -0.06065100
H     -1.38643900    -2.27157000    -0.02393800
H      0.25061100     3.64987300    -0.05673400
H      3.24147100     6.98632500    -0.05548300
H      8.24564800     3.22084900     0.02246900
H      8.35105000     5.64877000     0.00355400
H      6.35242800     7.07365300    -0.02695400
