042
BNPAH_000349_PAH71   C24_H16_N01_B01 -1003.22418298     0.00000000     9.80431000  5284.94398748     8.42209434   229.17686018 22112.20564362    30.72641853     0.04896566     1.33242361   128.55933513    -4.72420000    -0.17361115  -108.94264092  -455.81600960    -2.60870000    -0.09586796   -60.15805160  -251.70128789     2.11550000     0.07774319    48.78458932   204.11472171
C      8.81262300    -1.96092500     0.00000200
C      7.58156100    -2.58807800     0.00000000
C      6.38020400    -1.83059500    -0.00000000
C      5.10458200    -2.46303300    -0.00000200
C      3.94906700    -1.72400400    -0.00000200
C      3.96861400    -0.29292400    -0.00000200
C      2.69662700     0.45661700    -0.00000200
C      1.47603300    -0.18896200    -0.00000100
C      0.22568200     0.50001000    -0.00000100
C      0.20707100     1.95489100    -0.00000100
C      1.41843100     2.60403100    -0.00000200
C      2.68872700     1.92782500    -0.00000200
C      3.88007400     2.64563700    -0.00000200
B      5.21625900     1.94389300    -0.00000100
C      5.21107700     0.38703700    -0.00000100
C      6.43140200    -0.39659200     0.00000000
C      7.71976500     0.20977000     0.00000200
C      8.87699100    -0.54804900     0.00000300
C     -1.10543500     2.61378200    -0.00000000
C     -2.28461100     1.82226100     0.00000100
C     -3.56277100     2.40824100     0.00000200
C     -3.69088200     3.79237600     0.00000200
C     -2.54048900     4.59749100     0.00000000
C     -1.27712700     4.01404600    -0.00000100
N     -2.16321300     0.43437500     0.00000100
C     -0.96645600    -0.20029600     0.00000100
H      9.73277000    -2.55076800     0.00000300
H      7.51375500    -3.67976300    -0.00000000
H      5.05678700    -3.55574900    -0.00000200
H      3.00063200    -2.26267900    -0.00000300
H      1.42702500    -1.27879800    -0.00000100
H      1.45724100     3.69542800    -0.00000200
H      3.78438200     3.73841900    -0.00000200
H      6.24187000     2.58264500    -0.00000100
H      7.78175900     1.29749600     0.00000200
H      9.85029100    -0.05058100     0.00000400
H     -4.44887700     1.76722800     0.00000300
H     -4.68409000     4.24617400     0.00000300
H     -2.63514800     5.68528400    -0.00000000
H     -0.39416200     4.65443500    -0.00000200
H     -3.01538100    -0.11639600     0.00000200
H     -0.99964100    -1.29120900     0.00000100
