042
BNPAH_000281_PAH38   C24_H16_N01_B01 -1003.20828672     0.00000000     8.83990000  5274.96893260     8.40619808   228.74430087 22070.47001400    30.66842403     0.04887324     1.32990873   128.31668614    -4.46730000    -0.16417025  -103.01838613  -431.02892759    -3.41390000    -0.12545851   -78.72640486  -329.39127793     1.05340000     0.03871174    24.29198128   101.63764966
C      7.94787900     0.20154900    -0.00000100
C      6.74296600    -0.46782100     0.00000000
C      5.50970500     0.24789100     0.00000100
C      4.25979800    -0.41112100     0.00000200
C      3.07913300     0.32242400     0.00000200
N      1.84296500    -0.28604300     0.00000200
C      0.63093700     0.33955100     0.00000100
C      0.60780700     1.78594300     0.00000100
C      1.83975300     2.43463900     0.00000100
C      3.09061000     1.75778300     0.00000100
C      4.33244700     2.41035000     0.00000000
C      5.54503900     1.69402900    -0.00000000
C      6.81482600     2.34937900    -0.00000100
C      7.98502200     1.62377300    -0.00000200
C     -0.69198100     2.47182700     0.00000100
C     -0.74128700     3.87671000     0.00000100
C     -1.94851100     4.60628600     0.00000000
C     -3.18844500     3.98288400    -0.00000100
B     -3.25701100     2.46385600    -0.00000100
C     -1.91365600     1.70887300    -0.00000000
C     -1.82725700     0.27403900    -0.00000000
C     -3.00624300    -0.53776100    -0.00000100
C     -2.95463200    -1.91289000    -0.00000100
C     -1.70776700    -2.59365300    -0.00000100
C     -0.54583900    -1.85931700     0.00000000
C     -0.56677300    -0.42991100     0.00000100
H      8.88432200    -0.36122900    -0.00000200
H      6.71744800    -1.56053100     0.00000100
H      4.22764300    -1.50412200     0.00000200
H      1.83431600    -1.30174600     0.00000200
H      1.86915600     3.52466700     0.00000100
H      4.35559100     3.50297500    -0.00000000
H      6.83952400     3.44198300    -0.00000200
H      8.94900700     2.13753700    -0.00000300
H      0.18742200     4.45140200     0.00000200
H     -1.86765000     5.70048800     0.00000100
H     -4.07575100     4.62689800    -0.00000100
H     -4.32567800     1.89549000    -0.00000200
H     -3.96672000    -0.02507400    -0.00000200
H     -3.88318600    -2.48941000    -0.00000200
H     -1.67266300    -3.68500100    -0.00000100
H      0.40157200    -2.40759600     0.00000100
