042
BNPAH_000036_PAH73   C24_H16_N01_B01 -1003.21777470     0.00000000     4.71066000  5280.92272865     8.41568605   229.00248190 22095.38069667    30.70303912     0.04892841     1.33140978   128.46151568    -4.68760000    -0.17226612  -108.09862486  -452.28464642    -2.76250000    -0.10152000   -63.70476388  -266.54073209     1.92510000     0.07074612    44.39386098   185.74391433
C      8.18268100    -0.07639700    -0.00000100
B      6.94815900    -0.92444100    -0.00000200
C      5.60397400    -0.16144200    -0.00000100
C      4.36350500    -0.79876300    -0.00000100
C      3.13260100    -0.11946700    -0.00000000
C      1.87172000    -0.75849300     0.00000000
C      0.68334100    -0.03630300     0.00000100
C      0.71745000     1.41989900     0.00000100
C      1.94895300     2.05458200     0.00000100
C      3.17438400     1.32472400     0.00000100
C      4.41288100     1.95618900     0.00000100
N      5.59793600     1.26396900     0.00000000
C      6.78855700     1.95400000     0.00000100
C      8.02256300     1.31615800     0.00000000
C     -0.56057300     2.15699900     0.00000100
C     -0.63004700     3.54754800     0.00000100
C     -1.85926900     4.24898600     0.00000000
C     -1.92078500     5.67308800    -0.00000000
C     -3.13512900     6.32732300    -0.00000100
C     -4.34904900     5.58859000    -0.00000100
C     -4.32630800     4.20968400    -0.00000100
C     -3.08886300     3.50211800     0.00000000
C     -3.01615500     2.09191300     0.00000100
C     -1.79859300     1.41277500     0.00000100
C     -1.76367000    -0.03291100     0.00000100
C     -0.58949500    -0.71685500     0.00000100
H      9.20762900    -0.46058100    -0.00000200
H      6.91261600    -2.13245100    -0.00000300
H      4.37768800    -1.89086700    -0.00000200
H      1.83368900    -1.85105600    -0.00000000
H      2.00839700     3.14432400     0.00000200
H      4.50469500     3.04302200     0.00000200
H      6.69012600     3.03931000     0.00000200
H      8.89037200     1.98572000     0.00000100
H      0.28504800     4.14316300     0.00000100
H     -0.98648500     6.24091200    -0.00000000
H     -3.16892600     7.41937700    -0.00000200
H     -5.30353700     6.12042500    -0.00000200
H     -5.25893200     3.63942300    -0.00000100
H     -3.94457500     1.51384400     0.00000000
H     -2.71640300    -0.56832400     0.00000100
H     -0.58450100    -1.80973300     0.00000100
