038
BNPAH_000255_PAH76   C22_H14_N01_B01  -925.85134590     0.00000000    10.07725000  4821.62396681     7.68374689   209.08540267 20173.67467713    30.51660738     0.04863131     1.32332533   127.68148528    -4.44050000    -0.16318537  -102.40036345  -428.44312066    -2.62500000    -0.09646697   -60.53393853  -253.27399882     1.81550000     0.06671839    41.86642492   175.16912185
C      9.31074300     1.81065900    -0.00000100
N      9.23772600     0.42625900    -0.00000200
C      8.04418300    -0.22665900    -0.00000100
C      6.84872300     0.46876100     0.00000000
C      5.58975900    -0.20081700     0.00000100
C      4.38037700     0.46825300     0.00000100
C      4.39360200     1.94972000     0.00000100
C      5.67283000     2.60554900     0.00000100
C      6.87082500     1.92964800     0.00000000
C      8.17245700     2.55486300    -0.00000000
C      3.21243500     2.68462100     0.00000100
B      1.86689300     1.99119400     0.00000100
C      0.47464900     2.66434900     0.00000000
C     -0.64318700     1.88387600    -0.00000100
C     -0.60440600     0.42750800    -0.00000100
C      0.64729100    -0.28190700     0.00000000
C      0.63387800    -1.71255800     0.00000000
C      1.88592700    -2.39333400     0.00000100
C      3.07486500    -1.70200700     0.00000200
C      3.10639300    -0.27272900     0.00000100
C      1.88476700     0.43699300     0.00000100
C     -0.60118900    -2.41164400    -0.00000000
C     -1.79787900    -1.71389400    -0.00000100
C     -1.79568400    -0.30529500    -0.00000200
H     10.31475000     2.23388200    -0.00000200
H     10.09631900    -0.11297700    -0.00000200
H      8.08798600    -1.31707300    -0.00000100
H      5.61303700    -1.29180500     0.00000100
H      5.67536200     3.69905200     0.00000100
H      8.24992300     3.64341800    -0.00000000
H      3.32737600     3.77634000     0.00000200
H      0.33451300     3.75244900     0.00000000
H     -1.64769900     2.32683400    -0.00000100
H      1.89060300    -3.48707000     0.00000200
H      4.00137800    -2.27882800     0.00000200
H     -0.59392200    -3.50516800    -0.00000000
H     -2.74839400    -2.25334000    -0.00000200
H     -2.74695000     0.23475600    -0.00000200
