042
BNPAH_000332_PAH73   C24_H16_N01_B01 -1003.19488421     0.00000000    10.29428000  5266.55873140     8.39279557   228.37960003 22035.28173218    30.61952751     0.04879532     1.32778837   128.11210310    -4.60920000    -0.16938498  -106.29067790  -444.72019632    -2.76700000    -0.10168538   -63.80853635  -266.97491609     1.84220000     0.06769960    42.48214155   177.74528024
C      8.05655800    -0.36045300    -0.00000100
C      6.80953400    -0.91860900    -0.00000000
C      5.60185700    -0.11970400     0.00000000
C      4.36783400    -0.74176300     0.00000000
C      3.15007500     0.00078400     0.00000100
C      1.91573200    -0.61048900     0.00000100
N      0.73263400     0.08394200     0.00000100
C      0.73807600     1.50377500     0.00000100
C      1.95655000     2.14159000     0.00000100
C      3.21273900     1.45819400     0.00000100
C      4.44710100     2.08062800     0.00000100
C      5.68374300     1.35605700     0.00000000
C      6.92759300     1.98642000    -0.00000000
B      8.21676600     1.18426200    -0.00000100
C     -0.56512000     2.18914300     0.00000000
C     -0.66767400     3.57586300     0.00000100
C     -1.91882000     4.24143100     0.00000000
C     -2.01737000     5.66214300     0.00000000
C     -3.24996900     6.28355900    -0.00000000
C     -4.44253600     5.51370100    -0.00000100
C     -4.38280300     4.13466100    -0.00000100
C     -3.12769600     3.46266800    -0.00000000
C     -3.01617500     2.05248400    -0.00000100
C     -1.78062900     1.41434100    -0.00000000
C     -1.67265100    -0.02612900    -0.00000000
C     -0.46646700    -0.63302400     0.00000000
H      8.91055300    -1.04917600    -0.00000100
H      6.66505200    -2.00683300    -0.00000000
H      4.31852400    -1.83509300     0.00000000
H      1.81170000    -1.69661100     0.00000100
H      1.96963000     3.23108200     0.00000100
H      4.49506500     3.17327000     0.00000100
H      6.90663800     3.08370700    -0.00000000
H      9.30922900     1.70681100    -0.00000100
H      0.23024100     4.19579200     0.00000100
H     -1.09892800     6.25482200     0.00000100
H     -3.31214000     7.37423500     0.00000000
H     -5.41096700     6.01940600    -0.00000100
H     -5.29984700     3.53986000    -0.00000200
H     -3.92674900     1.44723500    -0.00000100
H     -2.57546700    -0.63812200    -0.00000000
H     -0.34374400    -1.71588000     0.00000000
