018
BNPAH_000150_PAH01   C06_H08_N02_B02  -392.41374643     0.00000000     7.12930000  1974.18687745     3.14606705    85.60884487  8259.99789525    29.03215996     0.04626569     1.25895360   121.47055727    -5.21370000    -0.19159994  -120.23077917  -503.04558005    -1.64740000    -0.06054083   -37.98994680  -158.94993739     3.56630000     0.13105911    82.24083238   344.09564266
B     -0.00000000     1.47230100     1.63551400
C     -0.00000000     2.62791500     0.63626600
C      0.00000000     2.40880200    -0.72613800
N      0.00000000     1.18820900    -1.33936800
C     -0.00000000    -1.19985500    -1.38275900
N     -0.00000000    -2.40492700    -0.74673900
C      0.00000000    -2.56014100     0.61619200
C      0.00000000    -1.47371100     1.45654900
B      0.00000000    -0.04895000     0.89702700
C      0.00000000    -0.02337300    -0.65495600
H     -0.00000000     1.70747200     2.82752000
H     -0.00000000     3.69005700     0.91176300
H      0.00000000     3.23639600    -1.44546400
H      0.00000000     1.18274200    -2.35547300
H     -0.00000000    -1.25577200    -2.47710300
H     -0.00000000    -3.24059800    -1.32205300
H      0.00000000    -3.60451200     0.94171400
H      0.00000000    -1.70205500     2.52750700
