042
BNPAH_000404_PAH67   C24_H16_N01_B01 -1003.18799530     6.02700000    10.67496000  5262.23587013     8.38590665   228.19214302 22017.19488062    30.59439459     0.04875527     1.32669851   128.00694696    -4.01630000    -0.14759630   -92.61807898  -387.51404246    -3.35040000    -0.12312493   -77.26206006  -323.26445929     0.66590000     0.02447137    15.35601892    64.24958317
C     -2.37709200     3.61955100     1.06930800
C     -1.09165300     3.15322500     1.31576500
C     -3.25886000     2.78318600     0.38006800
N     -0.72115700     1.94252300     0.87568200
C     -2.87081200     1.50426900    -0.05804400
C     -1.51641100     1.07311100     0.16846200
C     -1.03086000    -0.22238800    -0.21944100
C     -3.78315000     0.59635400    -0.67744600
C     -3.38241800    -0.68920100    -0.91769400
C     -2.05397100    -1.14789600    -0.63110400
C      0.32569500    -0.69962100    -0.04395600
C     -1.75677000    -2.52902000    -0.68426300
C     -0.53572500    -2.98133700    -0.21405300
C      0.52430800    -2.10723100     0.13898200
C      1.49689800     0.16598700    -0.03007500
C      2.74612400    -0.30118700     0.58108900
B      1.85743300    -2.65782000     0.71704100
C      2.89972000    -1.63970400     1.02429400
C      1.50941100     1.39924200    -0.71359700
C      2.59816200     2.28713000    -0.68114500
C      3.77336400     1.90384500     0.07421700
C      3.81271300     0.63389300     0.65809400
C      4.86848400     2.82876200     0.13873700
C      2.59014700     3.54493800    -1.36150300
C      4.81360200     4.03855100    -0.51087400
C      3.66265500     4.40251300    -1.27574200
H      5.75636700     2.54654800     0.71109200
H      5.65846900     4.72973200    -0.45285200
H      3.64205500     5.36433200    -1.79425400
H      1.70821700     3.81760300    -1.94930000
H     -2.67449300     4.60866200     1.41650700
H     -4.28308800     3.11211600     0.18745400
H     -0.33198600     3.72342900     1.85140900
H      0.25590800     1.63755800     1.00112100
H     -4.80108600     0.92789000    -0.89080600
H     -4.09286500    -1.41758500    -1.31692500
H     -2.53203200    -3.22604000    -1.01220900
H     -0.35599300    -4.05683000    -0.12780300
H      3.86215400    -1.86615700     1.49968200
H      1.97135500    -3.85115600     0.90377300
H      0.64155600     1.67963300    -1.31948100
H      4.73196500     0.31387000     1.15784900
