036
BNPAH_000391_PAH22   C20_H14_N01_B01  -849.64692155     0.00000000    11.75371000  4464.83624437     7.11516946   193.61362280 18680.87484644    30.58107017     0.04873404     1.32612070   127.95119759    -4.18330000    -0.15373344   -96.46919050  -403.62709305    -2.88520000    -0.10602915   -66.53429312  -278.37948243     1.29810000     0.04770430    29.93489737   125.24761061
C      2.67694900    -0.18373600    -0.00000100
C      2.61141700    -1.61053200    -0.00000100
C      1.39184200    -2.24427800    -0.00000000
C      0.15978700    -1.51242600     0.00000000
C     -1.07012200    -2.19542200     0.00000100
C     -2.30298600    -1.51393600     0.00000100
C     -3.52951000    -2.21682300     0.00000100
C     -4.77465200    -1.57782900     0.00000000
C     -4.84408000    -0.10875200     0.00000000
C     -6.12814500     0.50333000    -0.00000000
C     -7.31601200    -0.20363700    -0.00000000
C     -7.26907500    -1.61283800    -0.00000000
N     -8.43315200    -2.33716400    -0.00000100
C     -8.50829300    -3.69329800    -0.00000000
C     -7.33269500    -4.41691900    -0.00000000
C     -6.10428200    -3.73765900     0.00000000
C     -6.01660200    -2.33131400     0.00000000
C     -3.68362200     0.68196800     0.00000000
B     -2.31054400     0.03843200     0.00000100
C     -0.95469400     0.72031800     0.00000000
C      0.21881300    -0.04854300     0.00000000
C      1.52302000     0.56034200    -0.00000000
H      3.65173600     0.31130600    -0.00000100
H      3.53539100    -2.19466700    -0.00000100
H      1.34043000    -3.33726900    -0.00000000
H     -1.04160200    -3.29387700     0.00000100
H     -3.49748100    -3.31336400     0.00000100
H     -6.16455000     1.59636400    -0.00000000
H     -8.28120700     0.30951300    -0.00000100
H     -9.30025000    -1.80456600    -0.00000100
H     -9.50636400    -4.12958600    -0.00000100
H     -7.36955900    -5.50641500     0.00000000
H     -5.18740200    -4.32720600     0.00000100
H     -3.85140700     1.76739900     0.00000000
H     -0.81693400     1.80994100     0.00000000
H      1.57241800     1.65315300    -0.00000000
