042
BNPAH_000108_PAH69   C24_H16_N01_B01 -1003.22328272     0.00000000     8.88192000  5284.37906598     8.42119408   229.15236287 22109.84201206    30.72313410     0.04896043     1.33228118   128.54559307    -4.32180000    -0.15882322   -99.66307640  -416.99031165    -2.93020000    -0.10768286   -67.57201778  -282.72132241     1.39160000     0.05114036    32.09105861   134.26898924
C     -2.63369900    -0.46294200     0.00000100
C     -2.62681700     0.91380600     0.00000100
C     -1.40671200     1.66832900     0.00000000
C     -1.39533900     3.07810200    -0.00000000
B     -0.08832000     3.82259400    -0.00000100
C      0.08123000     5.34825100    -0.00000100
C      1.34186500     5.91928700    -0.00000100
C      2.50660100     5.11339700    -0.00000000
N      3.72813800     5.73032400    -0.00000000
C      4.94686400     5.11768500     0.00000000
C      6.13924900     5.89602500     0.00000100
C      7.35627000     5.26810200     0.00000100
C      7.46289800     3.83834400     0.00000100
C      8.73176700     3.20647000     0.00000100
C      8.83938100     1.82659000    -0.00000000
C      7.67115800     1.03653200    -0.00000100
C      6.41803000     1.63038800    -0.00000100
C      6.27467000     3.03897600    -0.00000000
C      4.97862100     3.69950800    -0.00000000
C      3.73797000     3.02282900    -0.00000100
C      2.49271000     3.66030400    -0.00000100
C      1.20796700     2.97956800    -0.00000100
C      1.09430800     1.58664200    -0.00000100
C     -0.15667500     0.92265800    -0.00000000
C     -0.20967900    -0.50446500     0.00000000
C     -1.40767900    -1.18565700     0.00000100
H     -3.58184900    -1.00745000     0.00000200
H     -3.56984000     1.46818400     0.00000100
H     -2.37750100     3.56908900    -0.00000000
H     -0.76928500     6.04157300    -0.00000100
H      1.48918800     7.00764400    -0.00000100
H      3.71920000     6.74877700     0.00000000
H      6.06921300     6.98683600     0.00000100
H      8.27479300     5.85973500     0.00000200
H      9.62859300     3.83141300     0.00000100
H      9.82229000     1.35039700    -0.00000000
H      7.75154600    -0.05286800    -0.00000200
H      5.53242100     0.99358000    -0.00000200
H      3.74393600     1.93296400    -0.00000100
H      1.97767300     0.93465600    -0.00000000
H      0.73482100    -1.05760600     0.00000000
H     -1.42037600    -2.27856100     0.00000100
