038
BNPAH_000096_PAH46   C22_H14_N01_B01  -925.91313545     0.00200000     1.65747000  4860.39750539     7.74553645   210.76678242 20335.90316255    30.76200953     0.04902238     1.33396698   128.70824787    -5.22470000    -0.19200419  -120.48444520  -504.10691871    -2.35900000    -0.08669165   -54.39983276  -227.60890027     2.86570000     0.10531253    66.08461244   276.49801844
C     -2.66032100    -0.42934900    -0.05075800
C     -2.53132500     0.99126700    -0.06106100
C     -1.30874500     1.60780000    -0.05472000
N     -0.11261400     0.91489400    -0.03803800
B     -0.15955700    -0.56115500    -0.02657200
C      1.18403300    -1.28494500    -0.00823600
C      2.33931800    -0.56334200    -0.00305300
C      2.35350300     0.87969300    -0.01444700
C      3.59948300     1.60013800    -0.00832200
C      4.87591300     0.93721500     0.00947400
C      6.05538400     1.63195400     0.01515700
C      6.08418300     3.06389700     0.00362500
C      7.28631200     3.80179200     0.00912300
C      7.26390900     5.19566200    -0.00262000
C      6.04653300     5.88481500    -0.02004800
C      4.82403200     5.19011400    -0.02607100
C      3.55549100     5.87018400    -0.04388100
C      2.38143500     5.17458400    -0.04940400
C      2.36536600     3.73519900    -0.03769300
C      1.16491600     3.02039000    -0.04327200
C      1.12503300     1.61503300    -0.03209600
C      3.60777700     3.02570500    -0.01992700
C      4.83585900     3.75805900    -0.01413600
C     -1.53513600    -1.21575300    -0.03399500
H     -3.66833400    -0.85841000    -0.05657900
H     -3.41941700     1.62628700    -0.07440000
H     -1.26296100     2.69316400    -0.06301400
H      1.25413700    -2.37751900     0.00113500
H      3.30226700    -1.07721600     0.01012400
H      4.91907400    -0.15109800     0.01889500
H      7.00468600     1.09014500     0.02881600
H      1.42503600     5.70392100    -0.06293900
H     -1.65296500    -2.30462700    -0.02625300
H      0.24947200     3.60808500    -0.05686500
H      3.55083900     6.96319800    -0.05294800
H      8.23886900     3.26590400     0.02272900
H      8.20273500     5.75457900     0.00180000
H      6.03606000     6.97783700    -0.02919100
