042
BNPAH_000297_PAH57   C24_H16_N01_B01 -1003.19647611     0.00000000    12.40552000  5267.55766335     8.39438747   228.42291782 22039.46126346    30.62533525     0.04880458     1.32804022   128.13640269    -4.44090000    -0.16320007  -102.40958767  -428.48171480    -2.89520000    -0.10639664   -66.76489860  -279.34433576     1.54570000     0.05680343    35.64468906   149.13737904
C      2.63643400     0.00119900     0.00000100
C      2.64165100    -1.38626000     0.00000200
C      1.43899200    -2.12634400     0.00000100
C      1.45268400    -3.56504100     0.00000200
C      0.28269800    -4.25317900     0.00000100
C     -0.98607600    -3.58515200    -0.00000000
C     -2.18504700    -4.28267800    -0.00000100
C     -3.44804600    -3.65495000    -0.00000100
C     -4.66112900    -4.36378100    -0.00000200
C     -5.86353300    -3.66066100    -0.00000100
C     -5.95540000    -2.25161400    -0.00000100
B     -7.32046200    -1.52257300    -0.00000000
C     -8.71535100    -2.15509700     0.00000100
C     -9.81354800    -1.31632100     0.00000200
C     -9.70197900     0.11213100     0.00000200
C     -8.48171300     0.76138200     0.00000100
C     -7.26587100     0.01784100    -0.00000000
C     -6.00131100     0.64428600    -0.00000100
C     -4.80019800    -0.06727000    -0.00000200
C     -4.73267000    -1.48217000    -0.00000200
C     -3.46273800    -2.19990200    -0.00000100
C     -2.23626700    -1.55194800    -0.00000100
N     -1.01668100    -2.18054000    -0.00000000
C      0.19817100    -1.43062000    -0.00000000
C      0.20546200    -0.02262200    -0.00000100
C      1.40817200     0.67877600    -0.00000100
H      3.57499400     0.55863700     0.00000100
H      3.58509500    -1.93720300     0.00000300
H      2.41314400    -4.08365100     0.00000300
H      0.26133900    -5.34372300     0.00000100
H     -2.12771300    -5.37272700    -0.00000100
H     -4.64510700    -5.45612300    -0.00000200
H     -6.79750200    -4.23019900    -0.00000100
H     -8.91834000    -3.23445800     0.00000100
H    -10.82979300    -1.73115400     0.00000300
H    -10.62350300     0.70270200     0.00000300
H     -8.45645700     1.85895100     0.00000100
H     -5.93784500     1.74111200    -0.00000100
H     -3.87662800     0.51839700    -0.00000200
H     -2.19872300    -0.46992800    -0.00000100
H     -0.71817500     0.55209100    -0.00000200
H      1.38279200     1.77038300    -0.00000100
