038
BNPAH_000393_PAH62   C22_H14_N01_B01  -925.81191076     0.02100000    11.82497000  4796.87804330     7.64431175   208.01231787 20070.13773317    30.35998762     0.04838172     1.31653366   127.02618820    -3.98760000    -0.14654160   -91.95624125  -384.74491340    -3.14010000    -0.11539655   -72.41242681  -302.97359378     0.84750000     0.03114505    19.54381444    81.77131962
C      4.65848800     2.01162800    -0.00209100
N      4.70883100     0.64273200    -0.00481800
C      3.61276300    -0.14951000    -0.00425100
C      2.29976900     0.34053800    -0.00056300
C      2.23107000     1.80603400     0.00115500
C      3.42889700     2.59285800     0.00072000
C      1.00700100     2.44970900     0.00265200
C     -0.18278700     1.71435200     0.00199300
C     -1.41560500     2.44058800     0.00242400
C     -2.61363800     1.79031300     0.00133900
C     -2.66147300     0.36325500    -0.00010000
C     -1.43823200    -0.39264500    -0.00018500
C     -1.49615400    -1.81878600    -0.00138200
C     -2.78423200    -2.42286200    -0.00271000
C     -3.95927800    -1.68243800    -0.00274800
C     -3.90603900    -0.28807100    -0.00138700
C     -0.29681600    -2.61606000    -0.00053800
B     -0.39678000    -4.15960400    -0.00084200
C      0.88262200    -4.93612300     0.00166600
C      2.07382100    -4.21388400     0.00440800
C      2.13580100    -2.81379500     0.00428200
C      1.00546200    -1.95172700     0.00128500
C      1.07453700    -0.47810300     0.00054800
C     -0.16562500     0.26885100     0.00077600
H      5.60786800     2.54511800    -0.00278400
H      5.61546500     0.18467700    -0.00753300
H      3.15027200    -2.45189600     0.00765400
H      3.34344400     3.68024500     0.00236100
H      0.96735800     3.54117200     0.00365900
H     -1.36720700     3.53200500     0.00342700
H     -3.55372500     2.34817400     0.00148900
H     -2.83066200    -3.50956400    -0.00357900
H     -4.92355500    -2.19645800    -0.00374700
H     -4.82013500     0.31091400    -0.00131500
H     -1.46208100    -4.73566800    -0.00262700
H      0.94992400    -6.03028300     0.00197500
H      3.04095300    -4.73592000     0.00695800
H      3.85877000    -1.19797400    -0.00757200
