034
BNPAH_000056_PAH30   C20_H12_N01_B01  -848.49559328     0.00000000     5.90224000  4369.02461674     6.96248391   189.45883742 18279.99899644    30.34044873     0.04835058     1.31568637   126.94443749    -4.73830000    -0.17412931  -109.26779465  -457.17645280    -2.90550000    -0.10677516   -67.00242225  -280.33813469     1.83280000     0.06735416    42.26537240   176.83831811
C      5.48415200    -0.25724300     0.00000000
C      4.34486900    -1.08077800     0.00000000
B      2.94983900    -0.47054300    -0.00000000
C      1.58606700    -1.15372300    -0.00000000
C      0.40853400    -0.40196700    -0.00000000
C      0.43459800     1.05258400    -0.00000000
C     -0.78142300     1.79601500     0.00000000
C     -2.04920800     1.11527000     0.00000000
C     -3.23381000     1.86324600     0.00000000
C     -3.20446900     3.26729400     0.00000000
C     -1.99486900     3.94711700     0.00000000
C     -0.76639900     3.23902100     0.00000000
C      0.48094900     3.91739600    -0.00000000
C      1.65577100     3.18961100    -0.00000000
N      2.89733000     3.83494300    -0.00000000
C      4.07604900     3.20497700    -0.00000000
C      4.15089500     1.80556700    -0.00000000
C      5.40512000     1.14013100     0.00000000
C      2.91500800     1.05955600    -0.00000000
C      1.68398700     1.75327900    -0.00000000
C     -2.05374800    -0.32585200    -0.00000000
C     -0.89158700    -1.03612300    -0.00000000
H      6.48561800    -0.70292200     0.00000000
H      4.53117100    -2.16240000     0.00000000
H      1.45394600    -2.24372700    -0.00000000
H     -4.19218100     1.33759700     0.00000000
H     -4.14277100     3.82758400     0.00000000
H     -1.97457300     5.04006900     0.00000000
H      0.50006300     5.01123300    -0.00000000
H      2.88817800     4.85217400    -0.00000000
H      4.96279700     3.84390300    -0.00000000
H      6.32152800     1.73784000     0.00000000
H     -3.01913000    -0.83900100    -0.00000000
H     -0.91654100    -2.12934700    -0.00000000
