038
BNPAH_000525_PAH46   C22_H14_N01_B01  -925.85676146     0.00100000     4.88995000  4825.02228489     7.68916245   209.23276768 20187.89323998    30.53811573     0.04866559     1.32425802   127.77147621    -5.03560000    -0.18505489  -116.12369557  -485.86154226    -2.74830000    -0.10099816   -63.37730410  -265.17064036     2.28730000     0.08405673    52.74639147   220.69090190
C     -2.61930200    -0.46052900    -0.05063200
C     -2.60354800     0.94731800    -0.06217700
C     -1.39848200     1.63699300    -0.05631800
C     -0.15922400     0.95510500    -0.03873400
C     -0.18106600    -0.47185300    -0.02714000
C      1.05952200    -1.19561400    -0.00931200
C      2.26603600    -0.55499500    -0.00313900
C      2.35585200     0.87538600    -0.01407900
C      3.60267800     1.57707100    -0.00801300
C      4.88966400     0.92194800     0.00948100
C      6.10216700     1.58880900     0.01546100
C      6.18669800     3.01920500     0.00459000
C      7.35542400     3.80443200     0.00921500
C      7.28890300     5.21645600    -0.00289100
C      6.08948500     5.95276200    -0.02016800
C      4.84596500     5.28686900    -0.02647200
C      3.54091100     5.86723700    -0.04348700
C      2.39605800     5.10530700    -0.04812500
N      2.38902400     3.70021500    -0.03680200
C      1.20623200     3.03235700    -0.04263800
C      1.13628600     1.63892200    -0.03194600
C      3.59616500     3.00151800    -0.01968600
B      4.88017400     3.77835200    -0.01389000
C     -1.42105600    -1.15567800    -0.03336600
H     -3.56986100    -0.99864600    -0.05529500
H     -3.54359700     1.50370300    -0.07584400
H     -1.42672900     2.72770300    -0.06567100
H      1.02015600    -2.28789000    -0.00064900
H      3.18363400    -1.14246800     0.01044600
H      4.90830800    -0.16872400     0.01854900
H      7.01584700     0.98088300     0.02903200
H      1.40070200     5.54897500    -0.06113700
H     -1.41595900    -2.24870900    -0.02426100
H      0.31907600     3.66251200    -0.05620100
H      3.39211300     6.95391400    -0.05370400
H      8.34950300     3.33887000     0.02236500
H      8.23147700     5.77202300     0.00147000
H      6.15104400     7.04835800    -0.02849200
