036
BNPAH_000179_PAH20   C20_H14_N01_B01  -849.67142756     0.00000000     7.72022000  4480.21400069     7.13967547   194.28046542 18745.21537889    30.68639726     0.04890189     1.33068812   128.39188614    -4.32950000    -0.15910619   -99.84064262  -417.73324871    -2.48750000    -0.09141394   -57.36311318  -240.00726555     1.84200000     0.06769225    42.47752944   177.72598317
C      2.13527400     0.64033300     0.00000200
C      2.31310700    -0.75516600     0.00000500
C      1.20689900    -1.59693300     0.00000400
C     -0.13745600    -1.13402500     0.00000100
C     -0.28743500     0.29910400    -0.00000100
C     -1.58847300     0.90695900    -0.00000400
C     -2.75780700     0.19377100    -0.00000300
C     -2.78581400    -1.23894900    -0.00000100
B     -1.45564000    -1.98847700    -0.00000000
C     -1.60614400    -3.54818700    -0.00000100
C     -0.51926800    -4.42044700    -0.00000300
N     -0.63929700    -5.76524500    -0.00000400
C     -1.85988300    -6.38227000    -0.00000200
C     -2.98572900    -5.60200600    -0.00000000
C     -2.92302500    -4.17763800     0.00000000
C     -4.12346300    -3.38284900     0.00000100
C     -5.40736300    -4.00859200     0.00000200
C     -6.58075500    -3.28813800     0.00000300
C     -6.51800500    -1.87498600     0.00000200
C     -5.29727200    -1.23592400     0.00000000
C     -4.05056400    -1.93894200    -0.00000000
C      0.84886000     1.15062300    -0.00000100
H      2.99961900     1.30961700     0.00000200
H      3.32050400    -1.18037100     0.00000700
H      0.50729800    -4.06655500    -0.00000500
H     -1.63085600     2.00045000    -0.00000500
H     -3.68519200     0.77255100    -0.00000400
H      1.42791100    -2.66464500     0.00000800
H      0.20402700    -6.33239000    -0.00000500
H     -1.86502900    -7.47126200    -0.00000200
H     -3.94285900    -6.11983100     0.00000100
H     -5.47904700    -5.09655600     0.00000300
H     -7.54440000    -3.80232700     0.00000400
H     -7.43939600    -1.28667900     0.00000200
H     -5.28755000    -0.14692400    -0.00000000
H      0.68806200     2.23289500    -0.00000300
