042
BNPAH_000555_PAH55   C24_H16_N01_B01 -1003.24522744     0.00000000     3.52887000  5298.14958986     8.44313880   229.74950930 22167.45788397    30.80319529     0.04908802     1.33575296   128.88056909    -4.79180000    -0.17609540  -110.50153396  -462.33841811    -2.17930000    -0.08008780   -50.25585228  -210.27048595     2.61250000     0.09600760    60.24568168   252.06793216
C      2.81768700    -0.38089200    -0.00000500
C      2.55204500    -1.73243400     0.00000300
C      1.20663400    -2.20813600     0.00000400
C      1.00202900    -3.60386800     0.00001000
N     -0.22677500    -4.12613200     0.00000900
C     -1.40637800    -3.42802300     0.00000400
C     -2.63734400    -4.20435600     0.00000100
C     -2.64124900    -5.62266200     0.00000200
C     -3.81334700    -6.36445900    -0.00000100
C     -5.04357000    -5.69340300    -0.00000600
C     -5.06602100    -4.30426600    -0.00000700
C     -3.89110300    -3.51688400    -0.00000300
C     -3.96578400    -2.03599600    -0.00000300
C     -5.21499400    -1.41066400    -0.00000400
C     -5.37762500    -0.00889400    -0.00000100
C     -6.65886000     0.61769200    -0.00000100
C     -6.76844300     1.99227700     0.00000300
C     -5.60290500     2.80714100     0.00000800
C     -4.35059700     2.22960900     0.00000800
C     -4.20365500     0.81174100     0.00000400
C     -2.94400800     0.17116300     0.00000400
C     -2.76551700    -1.21465900     0.00000000
B     -1.35674400    -1.90899000     0.00000000
C      0.08153500    -1.30131300    -0.00000300
C      0.42911000     0.08024900    -0.00001200
C      1.73878700     0.53285000    -0.00001300
H      3.84813700    -0.01765900    -0.00000500
H      3.36996900    -2.45871300     0.00000900
H      1.83249200    -4.31063700     0.00001500
H     -0.28089800    -5.14367900     0.00001200
H     -1.70191000    -6.18542500     0.00000500
H     -3.77185900    -7.45617200    -0.00000100
H     -5.98143500    -6.25340300    -0.00000900
H     -6.04012700    -3.81702300    -0.00001000
H     -6.13071700    -2.00231900    -0.00000600
H     -7.55421100    -0.01024400    -0.00000500
H     -7.75466100     2.46313100     0.00000300
H     -5.70588800     3.89507300     0.00001100
H     -3.45203700     2.85296500     0.00001200
H     -0.35655500     0.83261400    -0.00002100
H     -2.07607100     0.82762000     0.00000900
H      1.93977000     1.60716600    -0.00002100
