042
BNPAH_000582_PAH69   C24_H16_N01_B01 -1003.22857303     0.00000000     6.85262000  5287.69878809     8.42648439   229.29631964 22123.73172937    30.74243481     0.04899119     1.33311814   128.62634725    -5.00560000    -0.18395241  -115.43187913  -482.96698228    -2.53770000    -0.09325876   -58.52075269  -244.85082926     2.46790000     0.09069365    56.91112644   238.11615302
C     -2.83386900    -0.29900200     0.00000100
C     -2.71118700     1.06720300     0.00000000
C     -1.40892400     1.68013300    -0.00000000
C     -1.24031600     3.05458200    -0.00000000
C      0.05417300     3.66164000    -0.00000100
C      0.12784200     5.04624500    -0.00000000
N      1.29847000     5.71142200    -0.00000000
C      2.53330300     5.06603400    -0.00000000
C      3.70678000     5.81450800     0.00000000
C      4.96509700     5.18758900     0.00000000
C      6.17785800     5.95778700     0.00000100
C      7.39665800     5.34574700     0.00000100
C      7.51388200     3.91201300     0.00000000
C      8.78728800     3.29229900     0.00000000
C      8.91058500     1.91239800    -0.00000000
C      7.75189700     1.11129800    -0.00000100
C      6.49388000     1.69683200    -0.00000100
C      6.33468400     3.10333100    -0.00000000
C      5.02658300     3.75401200    -0.00000000
C      3.81829100     3.03341700    -0.00000000
C      2.55497100     3.63790000    -0.00000000
C      1.29352600     2.87395300    -0.00000000
C      1.21425400     1.49350400    -0.00000000
B     -0.13957800     0.77904200    -0.00000000
C     -0.39363300    -0.73840600     0.00000000
C     -1.69320600    -1.18603500     0.00000100
H     -3.83153700    -0.74858300     0.00000100
H     -3.61192900     1.69367800     0.00000000
H     -2.10649300     3.73134400    -0.00000000
H     -0.77273100     5.66408700    -0.00000000
H      1.29298000     6.72647800    -0.00000000
H      3.65386700     6.90733200     0.00000000
H      6.10339000     7.04832600     0.00000100
H      8.31402000     5.94010600     0.00000100
H      9.67789500     3.92642100     0.00000100
H      9.89904200     1.44722000    -0.00000000
H      7.84103100     0.02246000    -0.00000100
H      5.61523500     1.05040600    -0.00000100
H      3.85183400     1.94538700    -0.00000000
H      2.15469300     0.93036200    -0.00000000
H      0.40267700    -1.49335300     0.00000000
H     -1.91368200    -2.26110700     0.00000100
