042
BNPAH_000338_PAH51   C24_H16_N01_B01 -1003.27588148     0.00000000     1.62058000  5317.38529116     8.47379285   230.58364825 22247.94005821    30.91503076     0.04926624     1.34060261   129.34848870    -5.13770000    -0.18880699  -118.47817752  -495.71269475    -2.23570000    -0.08216046   -51.55646719  -215.71225873     2.90200000     0.10664653    66.92171033   280.00043603
C     -2.83706900    -3.18900100    -0.00001900
C     -2.72208200    -1.81785700     0.00000900
C     -1.43401000    -1.20022500     0.00000700
C     -0.25629400    -2.02038800    -0.00002400
C     -0.41674300    -3.44131000    -0.00005300
C     -1.67086300    -4.00866800    -0.00005000
C      1.02228300    -1.42439800    -0.00002600
C      1.26078500    -0.03693600     0.00000400
C      0.03979300     0.76735400     0.00002400
C      0.10724500     2.19357900     0.00003100
C      1.31354500     2.81255400     0.00001600
C      2.53109200     2.06065500     0.00000200
N      3.67409800     2.83106000    -0.00001700
B      4.99610300     2.34099000    -0.00003000
C      5.11947600     0.81891600    -0.00000900
C      6.43531400     0.20843300    -0.00000800
C      7.63439400     0.97854200    -0.00004200
C      8.87972400     0.37681000    -0.00004000
C      9.00322100    -1.03230800    -0.00000200
C      7.86450900    -1.81358600     0.00003300
C      6.57791600    -1.21336700     0.00003000
C      5.38664500    -1.98422200     0.00007000
C      4.14398100    -1.40455400     0.00006500
C      3.93242300     0.01786700     0.00001800
C      2.58273900     0.64537600     0.00000800
C     -1.23518300     0.18570000     0.00002800
H     -3.82397500    -3.65799100    -0.00001700
H     -3.61201500    -1.18291400     0.00003200
H      0.47578900    -4.07299700    -0.00007800
H     -1.77911500    -5.09598500    -0.00007200
H      3.31718300    -2.09474000     0.00010700
H     -0.82224600     2.76715500     0.00004400
H      1.38616800     3.90382400     0.00001500
H      3.49574600     3.83134000    -0.00002300
H      5.88011600     3.15368400    -0.00005000
H      7.56695500     2.06562000    -0.00007100
H      9.77877900     0.99827700    -0.00006700
H      9.99301400    -1.49516900    -0.00000000
H      7.93573900    -2.90471800     0.00006300
H      5.46393400    -3.07522900     0.00010700
H      1.82754900    -2.14220800    -0.00005900
H     -2.10318400     0.85106400     0.00004500
