042
BNPAH_000295_PAH64   C24_H16_N01_B01 -1003.17869294     5.51700000    10.84199000  5256.39855432     8.37660429   227.93901305 21992.77155127    30.56045671     0.04870119     1.32522682   127.86495087    -4.43710000    -0.16306042  -102.32195758  -428.11507053    -2.82270000    -0.10373231   -65.09300887  -272.34914913     1.61440000     0.05932811    37.22894871   155.76592141
C    -13.08689900    -7.79092900     9.53504400
C    -12.50391200    -7.17640600     8.40307300
C    -13.60423000    -7.00108800    10.54374600
C    -12.38751800    -5.79899300     8.33805800
C    -13.53219200    -5.58194300    10.48236100
C    -12.83645500    -4.95459500     9.39370300
C    -14.20609900    -4.76924700    11.44287300
C    -12.72644700    -3.50162400     9.36372700
C    -14.28022300    -3.41067700    11.25864800
C    -13.57992700    -2.73788300    10.20847400
C    -11.84811800    -2.79351600     8.44170000
B    -13.83674300    -1.23622000     9.92790800
C    -13.17928500    -0.68357300     8.69295900
C    -12.19281800    -1.43776500     8.04078100
C    -11.43184800    -0.86845700     6.96644900
C    -10.57684600    -3.29837600     8.03043000
C     -9.84352200    -2.67913200     6.95763500
C    -10.32842500    -1.46345700     6.40647600
C     -9.89875500    -4.33814600     8.74783600
C     -8.68195800    -4.81539800     8.34817600
N     -8.65531100    -3.26277300     6.49560800
C     -8.04793500    -4.32653200     7.17799300
C     -6.83143900    -4.85578600     6.69876600
C     -8.04431200    -2.80629500     5.33317500
C     -6.21882100    -4.37315400     5.55892800
C     -6.86570400    -3.32633400     4.86588200
H     -6.39487600    -5.67444600     7.27308900
H     -8.57315200    -2.02715700     4.79597000
H     -5.27928300    -4.79302100     5.19829100
H     -6.45451500    -2.91823700     3.94142400
H    -14.11184500    -7.45780700    11.39799500
H    -11.96810200    -5.34369200     7.43982600
H    -13.16351800    -8.87972100     9.59041700
H    -12.16124000    -7.78975300     7.56561800
H    -14.72035600    -5.25610100    12.27638400
H    -14.88707600    -2.80110100    11.93406800
H    -14.57866600    -0.60081300    10.64539200
H    -13.35446800     0.32217300     8.29156300
H    -11.74562100     0.11108000     6.59527000
H     -9.80654700    -0.94324100     5.60526600
H    -10.35503900    -4.72512300     9.65769800
H     -8.16379900    -5.58745300     8.91795000
