042
BNPAH_000298_PAH55   C24_H16_N01_B01 -1003.17015423     0.02000000     8.26738000  5251.04042953     8.36806558   227.70666277 21970.35315715    30.52930482     0.04865154     1.32387595   127.73461137    -4.45960000    -0.16388728  -102.84081991  -430.28599052    -2.68030000    -0.09849921   -61.80918684  -258.60963772     1.77930000     0.06538807    41.03163308   171.67635280
C      2.58351700    -0.22458000    -0.00189600
C      2.41019700    -1.59139600     0.00114500
C      1.13742200    -2.20130000     0.00139800
C      1.05218900    -3.60746100     0.00349800
C     -0.16506100    -4.20382700     0.00293600
C     -1.39973300    -3.48065200     0.00098900
C     -2.60032700    -4.26090800     0.00026000
C     -2.60575800    -5.69433400     0.00071300
C     -3.78552600    -6.40891200    -0.00027600
C     -5.06649300    -5.77378600    -0.00175500
C     -5.20348900    -4.40244800    -0.00226700
B     -3.93606900    -3.54454600    -0.00125600
C     -3.88192400    -1.99575500    -0.00104400
C     -5.11337000    -1.33849900    -0.00146600
C     -5.27189700     0.05729900    -0.00028900
C     -6.53227800     0.72313100    -0.00057900
C     -6.59288000     2.09986900     0.00100200
C     -5.39609800     2.87186300     0.00299100
C     -4.16596500     2.25187200     0.00332100
C     -4.06912100     0.82624000     0.00163400
C     -2.81525100     0.17507200     0.00185300
C     -2.62925300    -1.23123300     0.00012900
C     -1.35970300    -2.02090700     0.00005300
N     -0.05002300    -1.43906000    -0.00080900
C      0.17152000    -0.06919500    -0.00465400
C      1.40385600     0.53684100    -0.00514900
H      3.57216800     0.23491400    -0.00220100
H      3.26245700    -2.27258800     0.00326900
H      1.98049400    -4.17959000     0.00506900
H     -0.21292000    -5.28964200     0.00409600
H     -1.68455000    -6.28567400     0.00176300
H     -3.74213800    -7.50198300     0.00007600
H     -5.94895500    -6.42591500    -0.00243300
H     -6.22850100    -4.01090600    -0.00331300
H     -6.01521100    -1.95442700    -0.00252000
H     -7.44608200     0.12325900    -0.00202100
H     -7.56024100     2.60810600     0.00078700
H     -5.45942900     3.96275200     0.00426200
H     -3.24792600     2.84748900     0.00484300
H     -0.70112300     0.54304400    -0.00791700
H     -2.03331900     0.91997600     0.00404600
H      1.42370200     1.62778700    -0.00829000
