042
BNPAH_000039_PAH67   C24_H16_N01_B01 -1003.17150962     5.39500000     7.93625000  5251.89094868     8.36942097   227.74354477 21973.91172928    30.53424970     0.04865942     1.32409038   127.75530074    -4.39000000    -0.16132953  -101.23580577  -423.57061135    -3.05190000    -0.11215526   -70.37848648  -294.46358742     1.33810000     0.04917427    30.85731929   129.10702393
C     -2.28099200     3.86273200     0.68747400
B     -0.97616900     3.41125900     1.36711300
C     -3.04551000     2.93929300     0.01397700
C     -0.58446100     1.96383700     1.13619400
C     -2.64874500     1.56727000    -0.15483700
C     -1.37438900     1.10518900     0.34235900
C     -0.98321500    -0.26040700    -0.01745600
C     -3.55575000     0.64422300    -0.73054500
C     -3.27789700    -0.70733800    -0.81321600
C     -1.99474900    -1.19161500    -0.45450600
C      0.34205900    -0.77817500     0.06211100
C     -1.70446600    -2.58595500    -0.50778900
C     -0.47086900    -3.07431200    -0.15254200
C      0.59521200    -2.17276700     0.12102900
N      1.49709000     0.06862600     0.01125500
C      2.74665800    -0.37251300     0.48408700
C      1.89136800    -2.63867200     0.50407600
C      2.90580600    -1.76080900     0.76753900
C      1.38218200     1.31403400    -0.54543000
C      2.44573600     2.22264400    -0.54838300
C      3.69229100     1.84711800     0.06363800
C      3.80516400     0.53003500     0.54588600
C      4.75993900     2.79026100     0.08479800
C      2.31295900     3.51485100    -1.14103600
C      4.59724300     4.03387900    -0.48582400
C      3.36679700     4.39772600    -1.10667300
H      5.70568400     2.51080500     0.55479100
H      5.41809900     4.75431900    -0.46389100
H      3.26088700     5.39180600    -1.54587800
H      1.35660000     3.79612000    -1.58626300
H     -2.67913600     4.88340500     0.75279300
H     -4.02053100     3.21023100    -0.41283000
H     -0.30780700     4.15708500     2.05331000
H      0.27966200     1.51805400     1.64047100
H     -4.53025800     1.01771900    -1.05964700
H     -4.03116700    -1.41595800    -1.16530400
H     -2.50462400    -3.27012500    -0.80172100
H     -0.27503400    -4.14817100    -0.11382000
H      3.87876400    -2.09394100     1.12947000
H      2.04209600    -3.71356300     0.62722400
H      0.45926000     1.51405000    -1.07850200
H      4.76055100     0.16303000     0.92456000
