038
BNPAH_000114_PAH49   C22_H14_N01_B01  -925.83992508     0.00000000    12.38520000  4814.45729708     7.67232607   208.77462646 20143.68933098    30.47124872     0.04855903     1.32135840   127.49170464    -4.10600000    -0.15089272   -94.68661014  -396.16877682    -2.62100000    -0.09631997   -60.44169634  -252.88805749     1.48500000     0.05457274    34.24491380   143.28071933
C     -7.31850400    -1.66227000     0.00000000
C     -6.06690400    -2.30581000     0.00000000
C     -4.85893500    -1.58637000     0.00000000
C     -4.85845100    -0.13010900    -0.00000000
B     -6.22255000     0.60541500    -0.00000000
C     -7.45308600    -0.27273400    -0.00000000
C     -3.59172500     0.51363400     0.00000000
C     -2.35237400    -0.22932600     0.00000000
C     -2.38555400    -1.67531100     0.00000000
C     -3.62283000    -2.29423600     0.00000000
C     -1.12211400    -2.42110600     0.00000000
C     -1.09365200    -3.83676700     0.00000000
C      0.09759400    -4.54732200    -0.00000000
C      1.32477000    -3.86359000    -0.00000000
C      1.32722400    -2.47684900    -0.00000000
C      0.12490900    -1.73296300     0.00000000
C      0.13338500    -0.26618200     0.00000000
C     -1.11921700     0.44969300     0.00000000
C     -1.08324300     1.89983900     0.00000000
C     -2.31606600     2.62320100    -0.00000000
C     -3.50489800     1.95092800    -0.00000000
C      0.14288600     2.54763900     0.00000000
N      1.29092000     1.83097600     0.00000000
C      1.31126800     0.46249600     0.00000000
H     -8.20953400    -2.30356900     0.00000000
H     -6.02272800    -3.39925300     0.00000000
H     -6.30850000     1.81536400    -0.00000100
H     -8.47475900     0.12562600    -0.00000000
H     -3.68418800    -3.38473400     0.00000000
H     -2.03234600    -4.39055700     0.00000000
H      0.07759300    -5.63968400    -0.00000000
H      2.26785200    -4.41438900    -0.00000100
H      2.28886800    -1.96054900    -0.00000100
H     -2.29105100     3.71574300    -0.00000000
H     -4.44601800     2.50039900    -0.00000000
H      0.23951800     3.63357400     0.00000000
H      2.17741700     2.32598600     0.00000000
H      2.30172300     0.01433700     0.00000000
