030
BNPAH_000043_PAH04   C16_H12_N01_B01  -696.12169792     0.00000000     4.82311000  3677.38271749     5.86028239   159.46640624 15386.16928998    30.64485598     0.04883569     1.32888672   128.21807742    -4.95040000    -0.18192385  -114.15893688  -477.64099190    -2.31940000    -0.08523638   -53.48663506  -223.78808109     2.63100000     0.09668747    60.67230182   253.85291081
C     -3.61847900     1.15071900    -0.00097700
C     -2.98373000     2.43424000    -0.00084700
C     -1.61307400     2.57903800    -0.00054500
B     -0.75213300     1.31705400    -0.00034500
C     -1.47326900    -0.02799600    -0.00049000
C     -2.90662100    -0.02918600    -0.00080900
C     -0.72095700    -1.23108000    -0.00029800
C     -1.34622700    -2.52018900    -0.00040600
C     -0.65540800    -3.70105000    -0.00020400
C      0.76099800    -3.64570900     0.00013900
C      1.37131900    -2.42592400     0.00023800
N      0.69426600    -1.21915700     0.00001800
C      1.46099100    -0.00042600     0.00012700
C      2.87761700    -0.03940400     0.00037900
C      3.61665500     1.13558400     0.00049900
C      2.97506800     2.38527000     0.00036800
C      1.59055400     2.42296700     0.00010800
C      0.79254400     1.25125800    -0.00002500
H     -4.71138900     1.10914100    -0.00121900
H     -3.63956100     3.31371200    -0.00100000
H     -1.21799800     3.60224000    -0.00046700
H     -3.48167100    -0.96044400    -0.00092700
H     -2.43374600    -2.53187700    -0.00066000
H     -1.18109800    -4.65781400    -0.00029700
H      1.37742900    -4.54496700     0.00033100
H      2.45174100    -2.36144000     0.00051100
H      3.44249700    -0.96897900     0.00047800
H      4.70751200     1.07385200     0.00069200
H      3.56138300     3.30708000     0.00046400
H      1.07739700     3.38738900    -0.00000700
