042
BNPAH_000270_PAH67   C24_H16_N01_B01 -1003.20321003     4.81700000     8.23232000  5271.78326350     8.40112139   228.60615718 22057.14117448    30.64990269     0.04884373     1.32910556   128.23919285    -4.44970000    -0.16352346  -102.61252049  -429.33078573    -2.53170000    -0.09303826   -58.38238940  -244.27191726     1.91800000     0.07048520    44.23013109   185.05886847
C     -2.93630300     3.72014200     0.71795400
C     -1.65727500     3.40808900     1.22999600
C     -3.65480700     2.74497100     0.04947200
C     -1.10222500     2.15738900     1.01264400
C     -3.11720600     1.44790800    -0.15877300
C     -1.77751400     1.14938000     0.26751300
C     -1.19371000    -0.15733400     0.02173600
C     -3.91030300     0.40524500    -0.73167700
C     -3.42793100    -0.87378300    -0.79315400
C     -2.08497500    -1.19142600    -0.39864200
B      0.29921200    -0.56799900     0.17058900
C     -1.69012900    -2.57382300    -0.41910200
C     -0.43711300    -3.00507400    -0.05150500
C      0.60003300    -2.07049500     0.23622000
C      1.58343900     0.31460200     0.09346800
C      2.88555300    -0.29986100     0.38058000
C      1.91208600    -2.53205500     0.54043600
C      3.00264600    -1.69227900     0.66293300
C      1.64196800     1.62904700    -0.38259400
C      2.81700800     2.38549900    -0.48130600
N      4.02862100     1.78477100    -0.07726500
C      4.03660400     0.48172200     0.31773500
C      5.21269700     2.52205600    -0.11901400
C      2.86036800     3.73156500    -0.94167100
C      5.23393900     3.81150300    -0.55597100
C      4.02997500     4.44766700    -0.98638900
H      6.09857300     1.98377300     0.21705600
H      6.18683900     4.34246200    -0.56975200
H      4.04643000     5.47963400    -1.33866700
H      1.91134300     4.17200800    -1.25207300
H     -3.36843900     4.71037900     0.88298800
H     -4.66821400     2.95239100    -0.30637700
H     -1.11186800     4.14903100     1.82098700
H     -0.13762500     1.91457900     1.46041600
H     -4.92594400     0.63705500    -1.06456100
H     -4.06555200    -1.68370100    -1.15980700
H     -2.45131700    -3.30581500    -0.70596000
H     -0.22668300    -4.08151400    -0.02458900
H      3.98941700    -2.09903500     0.89994200
H      2.07722800    -3.60999500     0.66724000
H      0.72617600     2.12984300    -0.70072800
H      5.02132100     0.07676100     0.55773000
