042
BNPAH_000173_PAH50   C24_H16_N01_B01 -1003.27217078     0.00300000     1.88520000  5315.05679173     8.47008215   230.48267495 22238.19761660    30.90149298     0.04924466     1.34001555   129.29184663    -5.30480000    -0.19494781  -122.33159509  -511.83539388    -2.39910000    -0.08816530   -55.32456074  -231.47796212     2.90570000     0.10678251    67.00703436   280.35743176
C     -2.98834200     0.29362000     0.00014500
C     -2.90768900     1.70308100     0.00044800
C     -1.66716000     2.31752500     0.00046400
C     -0.46405800     1.56345600     0.00018500
C      0.81716800     2.20395000     0.00019900
C      2.01205000     1.50454400    -0.00005600
B      1.90923900    -0.02583600    -0.00038100
C      3.21873100    -0.79975700    -0.00073400
C      4.38590600    -0.08979300    -0.00065000
C      4.54060300     1.36478800    -0.00022300
C      5.85041100     2.02892200    -0.00009500
C      5.83252200     3.46721200    -0.00017700
C      7.02339900     4.26130100    -0.00034400
C      8.25186100     3.68686300    -0.00038300
C      8.37082700     2.26357000    -0.00011900
C      9.68674300     1.73298400    -0.00001500
C      9.92786200     0.37485600     0.00041500
C      8.81764700    -0.48356500     0.00080700
C      7.52306500     0.01616000     0.00068100
C      7.20468100     1.40754100     0.00012200
C      4.61712000     4.19485400    -0.00010100
C      3.40806800     3.55819200     0.00002400
C      3.33458800     2.14550600    -0.00005800
N      0.59414400    -0.60082100    -0.00039100
C     -0.56323700     0.13624400    -0.00011800
C     -1.83634100    -0.47778700    -0.00013300
H     -3.96511200    -0.19606400     0.00013000
H     -3.82031600     2.30263000     0.00066500
H     -1.59304000     3.40841100     0.00069600
H      0.78473600     3.29888200     0.00043900
H      3.30754500    -1.89276200    -0.00107800
H      6.75706800    -0.74367500     0.00112500
H      6.90997400     5.34808300    -0.00045400
H      9.16286300     4.29007500    -0.00052900
H     10.51781300     2.44322700    -0.00024700
H     10.94660600    -0.01904600     0.00051100
H      8.95982600    -1.56704900     0.00124000
H      5.28839900    -0.67862400    -0.00101700
H      4.66928600     5.28638300    -0.00012200
H      2.49375500     4.15150500     0.00010800
H      0.46543600    -1.60999100    -0.00061100
H     -1.90008000    -1.56958800    -0.00036800
