042
BNPAH_000088_PAH35   C24_H16_N01_B01 -1003.22305176     5.18800000     6.44411000  5284.23413520     8.42096312   229.14607807 22109.23562168    30.72229148     0.04895909     1.33224464   128.54206755    -4.85170000    -0.17829669  -111.88286079  -468.11788955    -2.36720000    -0.08699300   -54.58892925  -228.40008000     2.48450000     0.09130369    57.29393154   239.71780955
C      0.10364900     0.73558100    -0.01582900
C     -0.00054800    -0.66800000     0.01619900
C     -0.06771800    -2.90240900    -1.13031500
C      0.07624700     2.93338200    -1.20891800
C     -0.14883000     0.66556900     2.63167200
C      0.11632700    -0.73176800     2.58724500
B     -0.19010000     1.47279700     1.30384300
C      0.17431600    -1.39615500     1.27371300
C     -0.34562300    -3.72805400    -2.23766800
C      0.35779100     3.71507300    -2.35308900
C     -0.35679000    -1.51372200    -1.13982300
C      0.39042300     1.53565600    -1.21308200
C     -0.45043100     3.58369600    -0.02279700
N      0.45472100    -3.44178100     0.03088600
C     -0.54282700     2.96806800     1.19188700
C      0.47096100    -2.74336700     1.19368400
C     -0.98758500    -3.19419100    -3.34530600
C      0.99855000     3.17819800    -3.46252900
C     -1.07281700    -1.02680800    -2.25987000
C      1.09866100     1.03541200    -2.33397800
C     -1.38115800    -1.84263900    -3.33976200
C      1.39713500     1.83068100    -3.43478000
C     -0.27740300     1.28218700     3.89806000
C      0.25803300    -1.44687900     3.79984000
C     -0.13596800     0.56961000     5.08318600
C      0.13784200    -0.80730000     5.02808100
H      0.08675500     4.77486900    -2.33730500
H     -0.08011600    -4.78822400    -2.20015800
H     -0.71148600     4.64354500    -0.13970000
H      0.70422500    -4.42498100     0.04138100
H     -0.88339700     3.57844100     2.03706800
H      0.76251900    -3.32263200     2.06853900
H     -1.21457600    -3.83218800    -4.20227600
H      1.21770000     3.80304200    -4.33177400
H     -1.38757800     0.01613000    -2.26264300
H      1.43571900    -0.00270100    -2.32788300
H     -1.93557200    -1.43246300    -4.18630700
H      1.95020400     1.40437100    -4.27592400
H     -0.23552300     1.07103200     6.04927700
H      0.24766100    -1.38361800     5.95038600
H      0.44668200    -2.52296000     3.80067100
H     -0.48008000     2.35549900     3.94128600
