042
BNPAH_000647_PAH68   C24_H16_N01_B01 -1003.17464106     3.16400000     8.81664000  5253.85595873     8.37255241   227.82875567 21982.13333133    30.54567418     0.04867763     1.32458579   127.80310077    -4.50010000    -0.16537563  -103.77477211  -434.19364650    -3.36100000    -0.12351447   -77.50650187  -324.28720382     1.13910000     0.04186115    26.26827024   109.90644269
C      1.84568200     1.98014600     0.26167700
C      2.85375600     1.15644700    -0.17957500
C      2.75380700    -0.27454000    -0.20011200
C      3.89992600    -1.02547800    -0.51473500
C      3.91454300    -2.41023100    -0.44514100
C      2.72113600    -3.11011700    -0.17827900
C      2.73348800    -4.53816200    -0.05407400
C      1.59241700    -5.22811000     0.21164500
C      0.32813500    -4.56108800     0.22209200
C     -0.86499800    -5.25369700     0.34940900
C     -2.13091800    -4.64109500     0.19991900
C     -3.35701700    -5.31128200     0.32092100
C     -4.57375900    -4.64837200     0.08843000
C     -5.83460400    -5.31274000     0.20916500
C     -7.01139000    -4.64280300    -0.02901400
C     -7.00000400    -3.26532700    -0.40388700
C     -5.81195300    -2.58805100    -0.53229400
C     -4.56170200    -3.24598100    -0.29340300
C     -3.33839800    -2.57516100    -0.41148400
C     -2.11966700    -3.24117100    -0.16020700
C     -0.89269400    -2.56667400    -0.23883500
N      0.30619900    -3.15154800     0.01447500
C      1.50571700    -2.38925600     0.01107300
C      1.50600500    -0.94203400     0.17640400
C      0.46467700    -0.15517300     0.70923800
B      0.56158700     1.35285400     0.81983100
H      2.04046000     3.05963700     0.24160200
H      3.81649800     1.56558200    -0.51302200
H      4.81604500    -0.48571600    -0.77069100
H      4.83455200    -2.97637100    -0.60439100
H      3.69092800    -5.05690900    -0.13971500
H      1.58871800    -6.30787900     0.36424200
H     -0.79868600    -6.32844900     0.52816700
H     -3.36621200    -6.36989400     0.59301500
H     -5.84480300    -6.36713400     0.49646900
H     -7.96668800    -5.16373900     0.06841300
H     -7.94622200    -2.75143000    -0.58781600
H     -5.80037900    -1.53326400    -0.81748900
H     -3.32513200    -1.51843500    -0.68934100
H     -0.42814500    -0.66831600     1.07947400
H     -0.84782100    -1.51895400    -0.52361100
H     -0.32614500     2.00992600     1.32145200
