042
BNPAH_000207_PAH43   C24_H16_N01_B01 -1003.20066850     0.01300000     3.58122000  5270.18842619     8.39857985   228.53699849 22050.46837518    30.64063038     0.04882895     1.32870348   128.20039751    -5.02020000    -0.18448895  -115.76856313  -484.37566814    -2.38010000    -0.08746706   -54.88641032  -229.64474079     2.64010000     0.09702189    60.88215281   254.73092734
C      2.04854200    -1.21888700    -0.00006600
C      0.89032200    -1.97129800    -0.00150400
C     -0.38544000    -1.35436100    -0.00135100
C     -1.57756900    -2.12084400    -0.00298900
C     -2.78384400    -1.48714800    -0.00261500
C     -2.98588400    -0.07534700    -0.00060200
N     -1.79482800     0.69701700     0.00027700
C     -1.81754900     2.06898700     0.00088900
B     -3.07693700     2.83468000     0.00048200
C     -4.34307400     1.99494400    -0.00008500
C     -5.57193100     2.70705000    -0.00062300
C     -6.77615700     2.07053900    -0.00100400
C     -6.84389800     0.65035500    -0.00034000
C     -8.17111700     0.03778700    -0.00022600
C     -9.37642800     0.79403800    -0.00145300
C    -10.61835300     0.18136000    -0.00125700
C    -10.73009900    -1.22621900     0.00023700
C     -9.58191600    -1.99379400     0.00151200
C     -8.30227300    -1.38083800     0.00128800
C     -7.10620000    -2.14421300     0.00277700
C     -5.86812900    -1.55866100     0.00247100
C     -5.63484200    -0.13535100     0.00054000
C     -4.31444200     0.56256300    -0.00005100
C     -0.49995900     0.06027300     0.00024500
C      0.70120200     0.80935800     0.00166500
C      1.94082400     0.18315900     0.00153500
H      3.02857600    -1.70043700    -0.00017800
H      0.93030700    -3.06318600    -0.00280400
H     -1.52515500    -3.21098300    -0.00456300
H     -5.06514300    -2.27607500     0.00414100
H     -0.83872000     2.53084900     0.00136500
H     -3.09963800     4.04171300     0.00066600
H     -5.52407200     3.79821600    -0.00079800
H     -7.69082400     2.66026200    -0.00150300
H     -9.34709600     1.88272000    -0.00262800
H    -11.52051600     0.79779700    -0.00226000
H    -11.71503200    -1.69896900     0.00040100
H     -9.63960800    -3.08552100     0.00273000
H     -7.17562400    -3.23523300     0.00427500
H     -3.64611900    -2.12307800    -0.00425000
H      0.70264900     1.89476900     0.00295600
H      2.84064200     0.80205800     0.00269700
