042
BNPAH_000489_PAH69   C24_H16_N01_B01 -1003.21850980     0.00000000    10.04995000  5281.38401452     8.41642116   229.02248514 22097.31071675    30.70572101     0.04893268     1.33152608   128.47273671    -4.31120000    -0.15843368   -99.41863459  -415.96756712    -2.77660000    -0.10203817   -64.02991761  -267.90117528     1.53460000     0.05639551    35.38871698   148.06639184
C     -2.82397900    -0.31989600    -0.00000100
C     -2.73223600     1.05495900    -0.00000100
C     -1.46115800     1.70420000    -0.00000100
C     -1.31947000     3.10583900    -0.00000100
C     -0.06530000     3.72209300    -0.00000000
C      0.05182300     5.15690200    -0.00000100
C      1.27107200     5.76239800    -0.00000000
C      2.49627300     4.99525900     0.00000100
C      3.72345700     5.69633200     0.00000100
C      4.97226100     5.05925700     0.00000100
C      6.15728700     5.85727600     0.00000100
C      7.41893300     5.30837700     0.00000000
C      7.54873500     3.89702400    -0.00000000
N      8.79064900     3.32633100    -0.00000100
C      9.03174000     1.99132100    -0.00000100
C      7.94546300     1.12781200    -0.00000100
C      6.64924000     1.64436200    -0.00000000
C      6.38816800     3.04052200     0.00000000
C      5.07211300     3.61343100     0.00000100
B      3.78136300     2.80029000     0.00000100
C      2.45500500     3.56431400     0.00000100
C      1.14374700     2.92230100     0.00000100
C      0.99403300     1.52863000     0.00000100
C     -0.26559000     0.89704100     0.00000100
C     -0.40232600    -0.52547600     0.00000100
C     -1.64542800    -1.11876400     0.00000100
H     -3.80370600    -0.80430900    -0.00000100
H     -3.63593300     1.67084800    -0.00000200
H     -2.21768300     3.73101200    -0.00000200
H     -0.86561000     5.75246700    -0.00000100
H      1.34309600     6.85409500    -0.00000000
H      3.69660000     6.79031700     0.00000100
H      6.05135000     6.94617900     0.00000100
H      8.31263400     5.93854500     0.00000000
H      9.58678800     3.96090500    -0.00000100
H     10.07506900     1.67929500    -0.00000200
H      8.11975000     0.05121000    -0.00000100
H      5.79428200     0.96801000    -0.00000000
H      3.81714000     1.58961200     0.00000100
H      1.88899000     0.90509800     0.00000200
H      0.50410300    -1.13718800     0.00000200
H     -1.73314600    -2.20822200     0.00000100
