018
BNPAH_000779_PAH01   C04_H08_N03_B03  -395.86727041     0.00000000     6.46430000  1915.56935162     3.05265407    83.06694839  8014.74216718    28.17013752     0.04489197     1.22157277   117.86385538    -4.28290000    -0.15739367   -98.76602108  -413.23703220    -2.35900000    -0.08669165   -54.39983276  -227.60890027     1.92390000     0.07070202    44.36618832   185.62813193
B     -0.00000000     1.22562600     1.55112500
B      0.00000000     2.62765500     0.67305500
N     -0.00000000     2.41001800    -0.75739200
C     -0.00000000     1.19519500    -1.35688200
C     -0.00000000    -1.20954800    -1.36019400
N      0.00000000    -2.39480200    -0.76744900
B     -0.00000000    -2.55623600     0.69960500
C     -0.00000000    -1.27299700     1.42377000
N     -0.00000000    -0.02231600     0.78860400
C     -0.00000000     0.00062700    -0.63178600
H      0.00000000     1.06696700     2.74742200
H      0.00000000     3.78545300     1.01577100
H      0.00000000     3.19773700    -1.40374100
H     -0.00000000     1.15486500    -2.44708700
H      0.00000000    -1.16741300    -2.45191800
H      0.00000000    -3.20421300    -1.38464300
H      0.00000000    -3.66819200     1.15222800
H     -0.00000000    -1.16842800     2.50951300
