042
BNPAH_000211_PAH42   C24_H16_N01_B01 -1003.15729924     0.00100000    13.35306000  5242.97380148     8.35521059   227.35686068 21936.60238539    30.48240582     0.04857681     1.32184221   127.53838595    -4.04470000    -0.14863998   -93.27299854  -390.25422591    -3.23140000    -0.11875176   -74.51785485  -311.78270468     0.81330000     0.02988822    18.75514370    78.47152123
C      2.77094100     0.03150000     0.00006000
C      2.66701700    -1.34242500    -0.00003700
C      1.40551400    -1.99215500    -0.00002600
C      1.22221000    -3.38012000    -0.00010500
C     -0.03781200    -3.98282600    -0.00008800
C     -0.13671100    -5.40323200    -0.00012800
C     -1.37195800    -5.97860400    -0.00007500
C     -2.58235400    -5.21209000    -0.00001100
C     -3.78650100    -5.95206400     0.00006000
C     -5.00389600    -5.30482400     0.00012300
C     -5.07843300    -3.90006000     0.00008100
C     -6.36240300    -3.29743300     0.00011600
C     -6.56703900    -1.92801500     0.00003700
C     -7.89619000    -1.36468300     0.00007400
C     -8.11272800    -0.01270000    -0.00001800
B     -6.91089800     0.96806700    -0.00017100
C     -5.53770300     0.32835100    -0.00020800
C     -5.38921500    -1.06651200    -0.00010300
C     -4.10423200    -1.69566400    -0.00012900
C     -3.86820600    -3.07228300    -0.00002000
C     -2.56329100    -3.77098400    -0.00001800
C     -1.24711400    -3.16338300    -0.00001200
C     -0.99913400    -1.77733800     0.00009400
N      0.24433600    -1.20852600     0.00008500
C      0.35885000     0.18025500     0.00018700
C      1.57793400     0.79949000     0.00017500
H      3.74550600     0.52099900     0.00005000
H      3.55251700    -1.97965500    -0.00012400
H      2.11428400    -4.00830600    -0.00017200
H      0.77579600    -6.00267700    -0.00018100
H     -1.46851900    -7.06732800    -0.00008200
H     -3.73071900    -7.04270800     0.00007300
H     -5.93490100    -5.87763100     0.00018900
H     -7.23031100    -3.96463100     0.00020000
H     -8.72647200    -2.08309500     0.00017900
H     -9.15764800     0.32322200     0.00002100
H     -7.07137700     2.17081200    -0.00025600
H     -4.60449600     0.90993800    -0.00031400
H     -1.78720900    -1.04180100     0.00021800
H     -3.30494600    -0.96635400    -0.00027200
H     -0.58855000     0.71772500     0.00027100
H      1.60684500     1.88978000     0.00025600
