026
BNPAH_000052_PAH06   C14_H10_N01_B01  -618.75880100     0.00000000     4.46539000  3220.30024881     5.13187511   139.64543458 13473.73624102    30.38019103     0.04841392     1.31740976   127.11071927    -4.70760000    -0.17300111  -108.55983582  -454.21435308    -2.27620000    -0.08364881   -52.49041939  -219.61991471     2.43140000     0.08935230    56.06941644   234.59443837
C      3.54344100     0.05320400     0.00039700
C      2.80666000     1.23965100     0.00041100
C      1.41287600     1.22640600     0.00022900
N      0.71249400     0.00490700     0.00002600
C      1.43526000    -1.21009900     0.00000800
B      0.71915400    -2.57148200    -0.00020900
C     -0.75660800    -2.51113100    -0.00039200
C     -1.41416400    -1.25497500    -0.00036200
C     -2.83885100    -1.17179500    -0.00053800
C     -3.52191100     0.03114700    -0.00051700
C     -2.81150100     1.23787700    -0.00031600
C     -1.41079800     1.23352800    -0.00013600
C     -0.67752000     2.46583800     0.00007100
C      0.67879100     2.45513600     0.00024500
C     -0.68848100    -0.00819500    -0.00015500
C      2.84243500    -1.14134800     0.00019700
H      4.63484600     0.07240800     0.00054100
H      3.29602900     2.21467900     0.00056300
H      1.39978100    -3.56978800    -0.00021300
H     -1.41853200    -3.38427400    -0.00055700
H     -3.39020900    -2.11494800    -0.00069400
H     -4.61453800     0.04068200    -0.00065600
H     -3.33276800     2.19752000    -0.00029600
H     -1.23231500     3.40671800     0.00008400
H      1.26096300     3.37768200     0.00040400
H      3.36500500    -2.09900200     0.00017600
