042
BNPAH_000347_PAH54   C24_H16_N01_B01 -1003.16162946     0.02300000    13.31002000  5245.69105630     8.35954081   227.47469200 21947.97137956    30.49820382     0.04860198     1.32252728   127.60448478    -4.04540000    -0.14866571   -93.28914093  -390.32176564    -3.16290000    -0.11623443   -72.93820731  -305.17345937     0.88250000     0.03243128    20.35093362    85.14830627
C      7.81237100     1.70530200    -0.00241800
C      7.76986300     0.27645400    -0.00090000
C      6.56230000    -0.37899300     0.00035900
C      5.33328200     0.35466000     0.00017000
C      4.08226900    -0.26926600     0.00137500
C      2.86373800     0.44162700     0.00114900
C      2.89682400     1.88657000    -0.00027700
C      4.16880200     2.50530800    -0.00151300
C      5.37322600     1.79554200    -0.00137100
C      6.65255800     2.44212600    -0.00264300
C      1.66292900     2.63596600     0.00025600
C      1.74418200     4.06443400    -0.00016800
C      0.67170400     4.93066000     0.00118600
B     -0.72410500     4.33578000     0.00416800
C     -0.76474800     2.82310600     0.00435700
C      0.35930400     1.97474200     0.00179100
C      0.32832600     0.48166000     0.00117500
C      1.58414500    -0.23990600     0.00189800
C      1.61164900    -1.66716500     0.00320500
C      0.49268000    -2.44318100     0.00353000
C     -0.77058400    -1.80136000     0.00124700
C     -1.90788500    -2.61062400     0.00033600
N     -3.14647100    -2.08197600    -0.00285300
C     -3.31614100    -0.72815700    -0.00584600
C     -2.23177300     0.10924000    -0.00476100
C     -0.86596200    -0.34445700    -0.00043900
H      8.78126000     2.21099200    -0.00340300
H      8.70444200    -0.28962000    -0.00074700
H      6.52224100    -1.47208300     0.00152200
H      4.09530700    -1.35807800     0.00241600
H      4.24310300     3.59078900    -0.00256200
H      6.68804800     3.53469500    -0.00380000
H      2.74615900     4.49696700    -0.00148000
H      0.90605300     6.00252900     0.00071900
H     -1.74684600     4.99143300     0.00661200
H     -2.47534000     1.15874800    -0.00828900
H      2.57232800    -2.17424000     0.00413000
H      0.55431100    -3.53335200     0.00473200
H     -1.83381700    -3.69832000     0.00191300
H     -3.95729300    -2.69494400    -0.00355000
H     -4.34274100    -0.36396900    -0.00922200
H     -1.75740700     2.40039700     0.00799500
