036
BNPAH_000054_PAH10   C20_H14_N01_B01  -849.62569211     0.00000000    14.88378000  4451.51456851     7.09394002   193.03594026 18625.13695465    30.48982581     0.04858863     1.32216397   127.56943119    -4.03960000    -0.14845256   -93.15538975  -389.76215071    -3.27720000    -0.12043488   -75.57402795  -316.20173292     0.76240000     0.02801768    17.58136180    73.56041779
C      1.92111100    -1.15488000     0.00000300
C      0.82341000    -1.98259400     0.00000100
B     -0.59036500    -1.35251900    -0.00000100
C     -1.91293100    -2.05924900    -0.00000200
C     -3.12216800    -1.31978400    -0.00000200
C     -4.37650600    -1.94946200    -0.00000200
C     -5.60084700    -1.24157800    -0.00000200
C     -6.83117600    -1.90205800    -0.00000100
C     -8.05113100    -1.18747400    -0.00000000
C     -8.03353000     0.28256900    -0.00000000
C     -9.31048900     0.94404000     0.00000100
C    -10.47641000     0.24110600     0.00000200
N    -10.43962000    -1.15168400     0.00000200
C     -9.27927800    -1.84145400     0.00000100
C     -6.81471600     0.93648800    -0.00000200
C     -5.57810200     0.23192900    -0.00000200
C     -4.33978400     0.86723300    -0.00000300
C     -3.10959400     0.16692600    -0.00000200
C     -1.89038300     0.86680400    -0.00000200
C     -0.64730400     0.21045200    -0.00000100
C      0.57973400     0.93842700     0.00000100
C      1.79422500     0.27829900     0.00000200
H      2.94028900    -1.56072800     0.00000400
H      1.00270000    -3.06559000     0.00000100
H     -2.02987900    -3.15132400    -0.00000200
H     -4.41016000    -3.04326100    -0.00000200
H     -6.85266700    -2.99583500    -0.00000100
H     -9.35229200     2.03482300     0.00000100
H    -11.46773900     0.69121400     0.00000400
H    -11.31588700    -1.66354300     0.00000300
H     -9.35877900    -2.93004000     0.00000100
H     -6.79323200     2.02990100    -0.00000100
H     -4.30906500     1.96117700    -0.00000200
H     -1.93652900     1.96425600    -0.00000200
H      0.56965600     2.03589800     0.00000100
H      2.71481600     0.87151400     0.00000400
