038
BNPAH_000447_PAH48   C22_H14_N01_B01  -925.86408572     0.00000000     5.88421000  4829.61833099     7.69648672   209.43207111 20207.12309686    30.56720463     0.04871194     1.32551944   127.89318417    -4.66090000    -0.17128492  -107.48290823  -449.70848803    -2.61190000    -0.09598556   -60.23184535  -252.01004096     2.04900000     0.07529936    47.25106288   197.69844708
C      1.91557600     1.47573500    -0.00000000
C      0.77482600     2.30485100     0.00000000
C     -0.49675200     1.75750200     0.00000100
C     -0.72713400     0.35376900     0.00000000
C      0.44923300    -0.47177800    -0.00000000
C      0.30467700    -1.88898200    -0.00000000
C     -0.93723900    -2.45129800     0.00000000
C     -2.13595600    -1.65687300     0.00000000
C     -3.41146700    -2.34410200     0.00000000
N     -3.42746700    -3.71525700     0.00000000
C     -4.54268200    -4.48981700     0.00000000
C     -5.78085600    -3.89970600     0.00000000
C     -5.87916700    -2.48458100    -0.00000000
C     -7.13997000    -1.82762000    -0.00000000
C     -7.19963900    -0.45408900    -0.00000000
C     -6.02382200     0.35618000    -0.00000000
C     -6.14375200     1.75970300    -0.00000000
C     -5.01138500     2.58010000    -0.00000000
C     -3.70462900     2.07887600     0.00000000
B     -3.43317700     0.57458600     0.00000000
C     -2.06945100    -0.22713700     0.00000100
C     -4.72312100    -0.26561000     0.00000000
C     -4.67966400    -1.68297800     0.00000000
C      1.74532400     0.10473800    -0.00000100
H      2.91736800     1.91205700    -0.00000100
H      0.89105200     3.39149700     0.00000100
H     -2.95108400     2.87024200     0.00000000
H      1.19963100    -2.51631200    -0.00000100
H     -0.97194800    -3.54484700    -0.00000000
H     -2.52940800    -4.18732900     0.00000100
H     -4.37937300    -5.56745600     0.00000000
H     -6.67885100    -4.51888400    -0.00000000
H     -8.05138200    -2.43026700    -0.00000100
H     -8.17375600     0.04445900    -0.00000100
H     -7.14292200     2.20490800    -0.00000000
H     -5.17162000     3.66485800    -0.00000000
H     -1.34598800     2.42815100     0.00000100
H      2.61120600    -0.56319800    -0.00000100
