038
BNPAH_000173_PAH36   C22_H14_N01_B01  -925.86428314     0.00100000     3.87667000  4829.74221455     7.69668414   209.43744320 20207.64142568    30.56798870     0.04871319     1.32555344   127.89646472    -5.32070000    -0.19553212  -122.69825781  -513.36951067    -2.24530000    -0.08251325   -51.77784845  -216.63851792     3.07540000     0.11301887    70.92040936   296.73099275
C      6.74597900     1.10271200    -0.00000000
C      5.56580800     1.81412600    -0.00000000
C      4.30987500     1.13716200     0.00000000
C      4.29210000    -0.29833500     0.00000000
C      5.53223800    -1.00351100     0.00000000
C      6.72891500    -0.31990700    -0.00000000
C      3.04571200    -0.95922500     0.00000000
C      1.82719700    -0.28051400     0.00000000
C      0.54506300    -1.02193300     0.00000000
C      0.49526400    -2.42198000     0.00000000
B     -0.80432000    -3.18502000     0.00000000
C     -2.00337000    -2.29247400    -0.00000000
N     -1.89250000    -0.92442300    -0.00000000
C     -3.08146000    -0.18043400    -0.00000000
C     -3.10192900     1.16926500    -0.00000000
C     -1.88046300     1.91850300    -0.00000000
C     -1.87628300     3.32344300    -0.00000000
C     -0.66823600     4.01137400     0.00000000
C      0.53654900     3.30375100     0.00000000
C      0.58110900     1.89909700     0.00000000
C      1.84803400     1.15904900     0.00000000
C      3.07713700     1.82053100     0.00000000
C     -0.65484300     1.18246600     0.00000000
C     -0.66243800    -0.25787200     0.00000000
H      7.70329500     1.62946600    -0.00000100
H      5.57639800     2.90741700    -0.00000000
H      5.51688300    -2.09656600     0.00000000
H      7.67339400    -0.86927500    -0.00000000
H      3.05986000    -2.04901300     0.00000000
H      1.45487300    -2.94531000     0.00000000
H     -0.89874800    -4.38758300     0.00000000
H     -3.04974200    -2.61023500    -0.00000000
H     -3.98360600    -0.79011700    -0.00000100
H     -4.06233600     1.68751800    -0.00000000
H     -2.82821000     3.85963300    -0.00000000
H     -0.65436700     5.10346900     0.00000000
H      1.46673300     3.87148500     0.00000000
H      3.11105600     2.91074000     0.00000000
