042
BNPAH_000058_PAH74   C24_H16_N01_B01 -1003.22257503     0.00000000     7.47919000  5283.93498249     8.42048639   229.13310558 22107.98396674    30.72055222     0.04895632     1.33216922   128.53479049    -4.83990000    -0.17786305  -111.61074632  -466.97936262    -3.02000000    -0.11098295   -69.64285500  -291.38570531     1.81990000     0.06688009    41.96789133   175.59365731
C      8.21000900    -2.76768200    -0.00000200
C      7.14151300    -3.63216500    -0.00000100
B      5.71046700    -3.05116000    -0.00000000
C      4.41230800    -3.80873200     0.00000100
C      3.18405400    -3.11335200     0.00000100
C      1.92692800    -3.74566300     0.00000100
C      0.70483100    -3.04977700     0.00000200
C      0.72455600    -1.62262500     0.00000200
N      1.94026000    -1.02012100     0.00000200
C      3.16967900    -1.64462900     0.00000200
C      4.33317000    -0.87708200     0.00000100
C      5.59990000    -1.49132300     0.00000000
C      6.80084300    -0.72080700    -0.00000100
C      8.03530900    -1.33977100    -0.00000200
C     -0.49598500    -0.85514200     0.00000200
C     -1.73793200    -1.54918700     0.00000100
C     -1.73382400    -2.98432400     0.00000100
C     -0.56841900    -3.70125400     0.00000100
C     -2.97508000    -0.79017100    -0.00000000
C     -4.25557500    -1.40524000    -0.00000100
C     -5.41768400    -0.65273800    -0.00000200
C     -5.35866100     0.75804900    -0.00000200
C     -4.12913400     1.39022600    -0.00000100
C     -2.92396500     0.64168300     0.00000000
C     -1.65341000     1.29565300     0.00000100
C     -0.48924800     0.57633200     0.00000200
H      9.24201600    -3.13891400    -0.00000300
H      7.35615100    -4.70828400    -0.00000200
H      4.33297100    -4.90313100     0.00000000
H      1.90083400    -4.83922700     0.00000100
H      1.96551900    -0.00379900     0.00000200
H      4.23657800     0.21801900     0.00000100
H      6.75398100     0.37546600    -0.00000100
H      8.93512200    -0.71590100    -0.00000300
H     -2.68130300    -3.52190400     0.00000000
H     -0.59163700    -4.79336600     0.00000100
H     -4.33707700    -2.49239000    -0.00000200
H     -6.38730700    -1.15603600    -0.00000300
H     -6.28050700     1.34413000    -0.00000300
H     -4.06729500     2.48155500    -0.00000100
H     -1.62462400     2.38786500     0.00000200
H      0.45507900     1.12691000     0.00000300
