018
BNPAH_001607_PAH01   C02_H08_N04_B04  -399.31980415     0.00000000     3.79421000  1856.33044306     2.95825086    80.49810621  7766.88657376    27.29897710     0.04350369     1.18379568   114.21892019    -4.81390000    -0.17690756  -111.01117208  -464.47074396    -2.32540000    -0.08545687   -53.62499835  -224.36699308     2.48850000     0.09145069    57.38617373   240.10375088
B      0.00000000     1.39622600     1.58346000
N      0.00000000     2.55675500     0.77554600
B     -0.00000000     2.49911400    -0.68123500
C      0.00000000     1.17332800    -1.41253400
C      0.00000000    -1.23973100    -1.45875100
B      0.00000000    -2.56858700    -0.74391000
N     -0.00000000    -2.52225000     0.68159000
N      0.00000000    -1.31688200     1.33133400
B      0.00000000    -0.05437300     0.71383300
N      0.00000000    -0.04346200    -0.79809900
H      0.00000000     1.49877600     2.79233900
H     -0.00000000     3.47789100     1.20978000
H     -0.00000000     3.53550300    -1.30197500
H     -0.00000000     1.11367000    -2.50664500
H      0.00000000    -1.14697200    -2.55035900
H     -0.00000000    -3.64641200    -1.27493400
H     -0.00000000    -3.32986100     1.29505300
H     -0.00000000    -1.38273300     2.34550700
