042
BNPAH_000041_PAH54   C24_H16_N01_B01 -1003.17817674     4.33800000    13.50443000  5256.07462923     8.37608809   227.92496633 21991.41624870    30.55857343     0.04869819     1.32514515   127.85707123    -4.22900000    -0.15541288   -97.52305754  -408.03647276    -3.39050000    -0.12459858   -78.18678803  -327.13352114     0.83850000     0.03081431    19.33626951    80.90295162
C      7.76359100     1.76569900    -0.61788900
B      7.87222100     0.28152300    -0.20880700
C      6.56450700    -0.38278300     0.12326900
C      5.35016100     0.33657800     0.06121700
C      4.10276300    -0.25993700     0.35141700
C      2.87822300     0.42892500     0.27592600
C      2.87766200     1.84299200    -0.04839700
C      4.09754000     2.44076000    -0.35843200
C      5.32456300     1.75167500    -0.33106800
C      6.54095300     2.41286400    -0.65970200
C      1.63187400     2.56361900     0.10040800
C      1.55742400     3.97895800     0.15705800
C      0.38015100     4.63796800     0.47463400
C     -0.77434500     3.90281400     0.79634700
C     -0.74595800     2.51578000     0.72022400
C      0.42369400     1.84733000     0.30865800
N      0.44140900     0.42076800     0.19934400
C      1.63149300    -0.25854200     0.40316500
C      1.54288700    -1.65128500     0.72429100
C      0.35594200    -2.32122800     0.70496600
C     -0.81689700    -1.67599000     0.20106000
C     -2.01113400    -2.38528000    -0.06573400
C     -3.07702200    -1.76940900    -0.70125900
C     -2.94976100    -0.43052500    -1.11495300
C     -1.80151500     0.30080500    -0.83467500
C     -0.73536100    -0.29421300    -0.12688300
H      8.63903500     2.36979100    -0.89141000
H      8.94079700    -0.29095200    -0.16681500
H      6.47101000    -1.43515500     0.42414500
H      4.12072800    -1.32156900     0.60320700
H      4.12401500     3.49914400    -0.62983200
H      6.46623300     3.46959300    -0.94813600
H      2.46566400     4.55819700    -0.01180100
H      0.36491500     5.72923000     0.51988000
H     -1.68430500     4.40901900     1.12419800
H     -1.71632100     1.32738100    -1.18714900
H      2.45891300    -2.16453400     1.00647100
H      0.30493800    -3.37187700     0.99846600
H     -2.06150100    -3.44050200     0.21261600
H     -3.99205300    -2.32599300    -0.91259500
H     -3.75560500     0.04515400    -1.67813900
H     -1.62923800     1.94324900     1.00271000
