042
BNPAH_000031_PAH45   C24_H16_N01_B01 -1003.21021442     7.92300000     5.41262000  5276.17858205     8.40812577   228.79675623 22075.53118730    30.67545687     0.04888445     1.33021370   128.34611154    -4.82030000    -0.17714276  -111.15875958  -465.08825009    -2.62750000    -0.09655884   -60.59158990  -253.51521215     2.19280000     0.08058391    50.56716968   211.57303794
C     -2.76372400     1.73602000     0.35858600
B     -1.38528000     1.46396000     0.88013800
C     -3.54662600     0.65657400    -0.03740700
C     -0.85214600     0.02361900     0.64629800
C     -3.11821200    -0.73861900    -0.00346000
C     -1.67816600    -0.98063400     0.07548700
N     -4.85208200     0.88128400    -0.46470200
C     -4.14152500    -1.72927300     0.03883800
C      0.52705900    -0.27404300     0.87774000
C     -1.05553700    -2.15766100    -0.51267200
C     -5.75080400    -0.07282700    -0.74540400
C     -5.45527500    -1.40199400    -0.47482200
C      0.33264200    -2.41314100    -0.25140800
C      1.09166100    -1.46735200     0.50147300
C     -6.43526100    -2.42751800    -0.71828400
C     -4.00248200    -3.06580200     0.63091500
C     -6.19352200    -3.71738400    -0.36213700
C     -5.00381500    -4.05673400     0.37926200
C     -1.72055100    -3.03546600    -1.41170200
C      0.94967400    -3.57249200    -0.79501100
C     -1.08833300    -4.14058000    -1.95371300
C      0.25344600    -4.43273200    -1.62176800
C     -4.85745200    -5.35095100     0.93075700
C     -2.96049300    -3.39346500     1.53013700
C     -3.79331800    -5.65721300     1.76585400
C     -2.85668100    -4.65928400     2.09019700
H     -2.23386800    -2.62905200     1.80252300
H     -2.04366600    -4.87542300     2.78668600
H     -5.61984600    -6.10262200     0.70974100
H     -3.69966000    -6.65898100     2.19192700
H     -3.23265100     2.72726600     0.30337100
H     -0.66875100     2.30942300     1.36692800
H     -2.74789800    -2.82027000    -1.70512300
H     -1.62978700    -4.78432700    -2.65132900
H      2.00276000    -3.75613800    -0.56475400
H      0.74326600    -5.31468700    -2.04169300
H     -7.37731100    -2.14163100    -1.19344600
H     -6.92901600    -4.50077800    -0.55917200
H      1.13690000     0.48885300     1.36918100
H      2.14257600    -1.68509500     0.71198200
H     -5.12177700     1.85773100    -0.55944700
H     -6.71188600     0.24978700    -1.14872100
