036
BNPAH_000452_PAH23   C20_H14_N01_B01  -849.62462455     0.00000000    15.69771000  4450.84466487     7.09287246   193.00689049 18622.33407782    30.48523743     0.04858132     1.32196500   127.55023341    -3.86100000    -0.14188913   -89.03677587  -372.52987026    -3.40490000    -0.12512777   -78.51885993  -328.52290993     0.45610000     0.01676137    10.51791595    44.00696033
C      2.72556200    -0.30496700    -0.00000200
C      2.50562600    -1.68923000    -0.00001100
C      1.23171500    -2.27510300    -0.00001100
C      0.04145000    -1.50212700    -0.00000200
C      0.16313900    -0.06211100     0.00000700
C     -1.04017200     0.66764900     0.00001700
C     -2.30501700     0.10047200     0.00001600
C     -2.49875100    -1.30911400     0.00000500
C     -3.79888800    -1.97880800     0.00000200
C     -3.77298200    -3.41615200     0.00000300
N     -4.94398200    -4.14001500     0.00000800
C     -6.16365100    -3.61996500     0.00001100
C     -6.31254200    -2.22261400     0.00000400
C     -7.63511400    -1.70287500     0.00000300
C     -7.85978700    -0.34222800    -0.00000700
C     -6.74145400     0.51134900    -0.00001800
C     -5.44175100     0.01991400    -0.00001600
C     -5.13824600    -1.37002200    -0.00000300
C     -2.58979200    -4.17597900    -0.00000000
C     -1.38238600    -3.52589100    -0.00000400
C     -1.27980400    -2.11231500    -0.00000100
B      1.53406000     0.62618400     0.00000800
H      3.77151300     0.02602400    -0.00000300
H      3.35984300    -2.37942100    -0.00001900
H      1.19037300    -3.36564400    -0.00001900
H     -0.97123400     1.76028200     0.00002700
H     -4.65373800     0.75643600    -0.00002800
H     -4.84057900    -5.15350100     0.00001000
H     -7.00914400    -4.30812400     0.00001500
H     -8.46931800    -2.40903200     0.00001000
H     -8.87382100     0.06139800    -0.00000900
H     -6.88712500     1.59403900    -0.00002900
H     -3.13088000     0.79417200     0.00002800
H     -2.64815200    -5.26800900    -0.00000000
H     -0.47282200    -4.12328000    -0.00000700
H      1.61093200     1.83861900     0.00001600
