036
BNPAH_000376_PAH19   C20_H14_N01_B01  -849.65038927     0.00000000    12.63120000  4467.01226961     7.11863718   193.70798418 18689.97933605    30.59597445     0.04875779     1.32676701   128.01355710    -3.98530000    -0.14645707   -91.90320199  -384.52299714    -3.51450000    -0.12915549   -81.04629599  -339.09770242     0.47080000     0.01730158    10.85690600    45.42529472
C      2.52316700     0.07650400     0.00000000
C      2.58922400    -1.34016300     0.00000000
C      1.43499900    -2.09647100     0.00000000
C      0.15073600    -1.47283100    -0.00000000
C     -1.06548700    -2.18440500    -0.00000000
C     -2.32533000    -1.54984500    -0.00000000
C     -2.31506400    -0.10551500    -0.00000000
C     -3.52241900     0.62861000    -0.00000000
C     -4.71680100    -0.05335800    -0.00000000
C     -4.80915300    -1.48410700    -0.00000000
C     -3.58865500    -2.23533500    -0.00000000
C     -3.68310500    -3.66249200    -0.00000000
C     -4.90647800    -4.28073400    -0.00000000
C     -6.14179300    -3.55163200    -0.00000000
C     -7.36923300    -4.23588300    -0.00000000
C     -8.60380900    -3.55801800     0.00000000
C     -8.70137600    -2.16575500     0.00000000
B     -7.44739500    -1.32523100     0.00000000
C     -6.10151100    -2.10172700    -0.00000000
N     -1.12407100     0.54978100    -0.00000000
C      0.11362800    -0.04239500    -0.00000000
C      1.29742400     0.72241700     0.00000000
H      3.44361500     0.66363700     0.00000000
H      3.56399300    -1.83218000     0.00000000
H      1.48438100    -3.18759100     0.00000000
H     -1.01610500    -3.27395800    -0.00000000
H     -3.49576200     1.72141900    -0.00000000
H     -5.65721000     0.49924600    -0.00000000
H     -2.77849800    -4.27369600    -0.00000000
H     -4.95279000    -5.37419300    -0.00000000
H     -7.35551700    -5.33020300     0.00000000
H     -9.51164800    -4.17551700     0.00000000
H     -9.71139600    -1.73864200     0.00000000
H     -7.49797500    -0.11135100     0.00000000
H     -1.15905900     1.56759100    -0.00000000
H      1.23919400     1.81403000     0.00000000
