042
BNPAH_000211_PAH57   C24_H16_N01_B01 -1003.21722037     0.00000000     6.30809000  5280.57488111     8.41513172   228.98739780 22093.92530256    30.70101675     0.04892518     1.33132208   128.45305408    -4.70740000    -0.17299376  -108.55522371  -454.19505601    -2.44430000    -0.08982637   -56.36689751  -235.83909916     2.26310000     0.08316739    52.18832621   218.35595685
C      2.72183100    -0.03785000     0.00000300
C      2.67969500    -1.42306100     0.00000200
C      1.44654200    -2.11957100     0.00000100
C      1.41717800    -3.55913900     0.00000100
C      0.23659000    -4.24158300    -0.00000000
C     -1.02285100    -3.54941700    -0.00000100
C     -2.24397900    -4.24628100    -0.00000200
C     -3.48969300    -3.60710400    -0.00000200
B     -4.81609700    -4.39642500    -0.00000200
C     -6.08901700    -3.59676400    -0.00000100
C     -6.05051600    -2.20459400    -0.00000100
N     -7.26439700    -1.42048700     0.00000000
C     -8.48931500    -2.06459500     0.00000400
C     -9.68266800    -1.40032600     0.00000500
C     -9.70125900     0.02067900     0.00000200
C     -8.50069100     0.67935100    -0.00000100
C     -7.25661400    -0.01777100    -0.00000200
C     -6.03618700     0.65595300    -0.00000400
C     -4.84723300    -0.06169000    -0.00000400
C     -4.80358100    -1.45938800    -0.00000200
C     -3.51627900    -2.17111700    -0.00000200
C     -2.29523500    -1.47206700    -0.00000100
C     -1.04712900    -2.11479400    -0.00000100
C      0.22049800    -1.38357200     0.00000000
C      0.29784800     0.02962600     0.00000100
C      1.51770600     0.69212300     0.00000200
H      3.68122700     0.48503800     0.00000400
H      3.60690700    -2.00260400     0.00000300
H      2.36983000    -4.09542300     0.00000100
H      0.22518900    -5.33467800    -0.00000100
H     -2.21949600    -5.34020400    -0.00000200
H     -4.81582300    -5.60721500    -0.00000200
H     -7.04784800    -4.11568300    -0.00000100
H     -8.44751000    -3.14701200     0.00000600
H    -10.60490700    -1.98208400     0.00000800
H    -10.64531900     0.56816100     0.00000300
H     -8.44841400     1.76920500    -0.00000300
H     -6.04422700     1.74563400    -0.00000600
H     -3.91549000     0.50257500    -0.00000600
H     -2.29832500    -0.38336700    -0.00000100
H     -0.61805400     0.62286800     0.00000000
H      1.54093500     1.78465400     0.00000200
