018
BNPAH_001569_PAH01   C02_H08_N04_B04  -399.32436945     0.00000000     4.10432000  1859.19521112     2.96281616    80.62233431  7778.87276333    27.34110605     0.04357083     1.18562256   114.39518771    -4.75270000    -0.17465850  -109.59986654  -458.56584159    -2.25590000    -0.08290280   -52.02229026  -217.66126245     2.49680000     0.09175571    57.57757628   240.90457914
B     -0.00000000     1.21125900     1.41456900
N      0.00000000     2.47593500     0.72271600
B      0.00000000     2.66647800    -0.69615900
B     -0.00000000     1.21570000    -1.57966400
C     -0.00000000    -1.29907900    -1.36094400
N      0.00000000    -2.49472300    -0.69918400
B      0.00000000    -2.49574200     0.75377500
N     -0.00000000    -1.24262000     1.36748700
N     -0.00000000    -0.00344600     0.68270600
C     -0.00000000    -0.06766300    -0.74148900
H     -0.00000000     1.14240900     2.62016900
H      0.00000000     3.29865300     1.32402700
H      0.00000000     3.81123900    -1.09450100
H     -0.00000000     1.05977200    -2.78090300
H     -0.00000000    -1.32342600    -2.45238200
H      0.00000000    -3.34454300    -1.25094600
H      0.00000000    -3.50566100     1.39852900
H     -0.00000000    -1.10454400     2.37219300
