042
BNPAH_000310_PAH67   C24_H16_N01_B01 -1003.20808671     6.36200000     3.83395000  5274.84342559     8.40599807   228.73885837 22069.94489267    30.66769433     0.04887208     1.32987708   128.31363308    -5.11840000    -0.18809773  -118.03310894  -493.85052783    -2.28360000    -0.08392075   -52.66106744  -220.33390617     2.83480000     0.10417698    65.37204150   273.51662166
C     -2.50350600     3.64117500     1.03871700
C     -1.30851600     3.14258600     1.59764600
C     -3.23173000     2.84146000     0.17367800
C     -0.82554600     1.89273100     1.24291800
C     -2.76939100     1.55126300    -0.17606100
C     -1.51123000     1.07801300     0.30349100
C     -1.02088600    -0.23788300    -0.09168200
C     -3.56997200     0.64299900    -0.94091900
C     -3.19255700    -0.65050600    -1.06162900
N     -1.97675800    -1.14063300    -0.56528000
C      0.32488300    -0.71067000     0.10278600
C     -1.77631900    -2.50415500    -0.59769000
B     -0.54036000    -3.11247200    -0.03472400
C      0.55709600    -2.10032300     0.30148000
C      1.48417900     0.19290700     0.03805600
C      2.76073500    -0.28108700     0.52695900
C      1.85720800    -2.52652900     0.74850400
C      2.89029500    -1.65327200     0.93228700
C      1.45480500     1.44462400    -0.58758000
C      2.57895400     2.29275500    -0.64235100
C      3.81853200     1.85963300    -0.04623600
C      3.87458700     0.56790900     0.50739900
C      4.94551900     2.73702600    -0.08400800
C      2.52824300     3.57802200    -1.26475100
C      4.85549400     3.97316300    -0.68336000
C      3.63451900     4.39756000    -1.28207200
H      5.88393200     2.40660000     0.36920800
H      5.72423500     4.63569900    -0.70598200
H      3.58108400     5.38080700    -1.75584500
H      1.58903500     3.90317700    -1.72013000
H     -2.86751800     4.63361400     1.31359500
H     -4.18870700     3.18325300    -0.22896100
H     -0.75918500     3.74003900     2.32887200
H      0.08898500     1.52383200     1.70479500
H     -4.52436500     0.96331000    -1.36230000
H     -3.80974600    -1.40978000    -1.53999400
H     -2.62327200    -3.02947700    -1.04589500
H     -0.38665500    -4.30558200     0.06381000
H      3.85642700    -1.99432800     1.31416200
H      1.99271900    -3.59042200     0.95913800
H      0.53443200     1.79235000    -1.05862200
H      4.82665900     0.19589400     0.89663500
