038
BNPAH_000228_PAH47   C22_H14_N01_B01  -925.84705900     0.00000000     6.71053000  4818.93390172     7.67945999   208.96875040 20162.41944480    30.49958166     0.04860418     1.32258703   127.61024967    -4.71910000    -0.17342373  -108.82503212  -455.32393441    -2.69220000    -0.09893653   -62.08360736  -259.75781319     2.02690000     0.07448720    46.74142477   195.56612122
C      2.04174500     1.31766300    -0.00002500
C      0.90273600     2.13747000    -0.00006400
C     -0.37332800     1.59221800    -0.00005700
C     -0.64673500     0.19008500    -0.00000800
C      0.54932700    -0.62324300     0.00001700
C      0.47129900    -2.05044000     0.00004000
C     -0.73797600    -2.65888800     0.00003200
C     -1.97541100    -1.92007400     0.00001300
C     -3.14304500    -2.71290700     0.00000100
B     -4.50324700    -2.10328800    -0.00001300
C     -4.51346400    -0.57401500    -0.00000000
C     -3.29057200     0.20077000     0.00001600
C     -3.48287200     1.61757200     0.00005200
C     -4.71481900     2.24100800     0.00005400
C     -5.89367800     1.47514700     0.00002400
C     -5.79327500     0.05548600     0.00000000
C     -7.02558300    -0.70932800    -0.00002000
C     -7.02156100    -2.13475800    -0.00003700
C     -5.84317900    -2.84826600    -0.00003200
C     -8.26019500     0.00197800    -0.00002000
C     -8.29387500     1.37287200     0.00000100
N     -7.12656100     2.07648300     0.00002300
C     -1.97910300    -0.46460100     0.00000700
C      1.84501400    -0.04891400     0.00001200
H      3.04671200     1.74559100    -0.00003100
H      1.00750400     3.22545300    -0.00010200
H     -2.64719100     2.29862100     0.00008700
H      1.39966500    -2.62716700     0.00005600
H     -0.81312800    -3.74895700     0.00004100
H     -2.96380800    -3.79559200     0.00000200
H     -1.16379900     2.32595100    -0.00010000
H     -4.77063400     3.33303400     0.00008100
H     -8.00034200    -2.62913800    -0.00005000
H     -5.91639100    -3.94299400    -0.00004100
H     -9.20097200    -0.55079100    -0.00003600
H     -9.21321100     1.95824700     0.00000200
H     -7.15987900     3.09205900     0.00004100
H      2.69944300    -0.73107700     0.00003500
