038
BNPAH_000144_PAH47   C22_H14_N01_B01  -925.92059380     0.00100000     0.98579000  4865.07768925     7.75299480   210.96973440 20355.48505182    30.79163094     0.04906959     1.33525148   128.83218385    -5.10390000    -0.18756487  -117.69873100  -492.45149050    -2.22150000    -0.08163862   -51.22900741  -214.34216700     2.88240000     0.10592625    66.46972359   278.10932350
C      2.04733500     1.26325900     0.00011700
C      0.92841900     2.10171100     0.00029400
C     -0.35329800     1.56271800     0.00025900
C     -0.64349100     0.17055600     0.00003500
C      0.53523300    -0.65519300    -0.00007600
N      0.45432000    -2.04043200    -0.00018100
B     -0.75880400    -2.74456100    -0.00014700
C     -2.03415600    -1.88781500    -0.00005600
C     -3.24038500    -2.60099300    -0.00000500
C     -4.48335000    -1.97546800     0.00005100
C     -4.51568800    -0.54336000    -0.00000500
C     -3.29100900     0.22882100    -0.00008000
C     -3.48839500     1.65769000    -0.00024200
C     -4.71528100     2.26137700    -0.00024800
C     -5.92576900     1.50900800    -0.00010900
C     -5.80853900     0.08662100    -0.00000300
C     -7.01160900    -0.69782400     0.00009100
C     -6.91743600    -2.13147400     0.00016500
C     -5.69969700    -2.74084600     0.00013600
C     -8.26067000    -0.05054400     0.00010000
C     -8.35352800     1.34391200     0.00000600
C     -7.19668400     2.11941900    -0.00010300
C     -2.00424900    -0.45280600    -0.00003400
C      1.83340900    -0.10464400    -0.00005500
H      3.06144800     1.66855900     0.00014000
H      1.04666500     3.18742700     0.00047000
H     -2.64664900     2.33106800    -0.00040200
H      1.35315400    -2.51425700    -0.00024600
H     -0.75511000    -3.94843600    -0.00019700
H     -3.19755000    -3.69367900    -0.00000300
H     -1.14883700     2.29059700     0.00045300
H     -4.77411100     3.35298800    -0.00037200
H     -7.83990200    -2.71757300     0.00023200
H     -5.61788700    -3.83075700     0.00017700
H     -9.16804300    -0.66002700     0.00017700
H     -9.33489100     1.82430400     0.00001100
H     -7.26028000     3.21054600    -0.00018900
H      2.68092400    -0.79662100    -0.00016200
