042
BNPAH_000406_PAH74   C24_H16_N01_B01 -1003.24347845     0.00000000     4.46922000  5297.05207818     8.44138981   229.70191669 22162.86589511    30.79681441     0.04907785     1.33547626   128.85387149    -5.20860000    -0.19141252  -120.11317038  -502.55350485    -2.85650000    -0.10497444   -65.87245540  -275.61035338     2.35210000     0.08643808    54.24071498   226.94315147
C      8.11664500    -2.93280400    -0.00000200
C      6.93038200    -3.63528800    -0.00000100
C      5.67674700    -2.95468000    -0.00000000
C      4.44473000    -3.64791400     0.00000000
C      3.23967400    -2.95207500     0.00000100
N      2.02085300    -3.58591500     0.00000100
C      0.77374500    -2.98769700     0.00000100
C      0.74495000    -1.52031700     0.00000100
C      1.95285300    -0.85750700     0.00000200
C      3.22492900    -1.51695000     0.00000100
C      4.44159600    -0.83055600     0.00000100
C      5.67775300    -1.51031900    -0.00000000
C      6.92628800    -0.81912000    -0.00000100
C      8.11766800    -1.51079300    -0.00000200
C     -0.55052800    -0.81114400     0.00000100
C     -1.76822900    -1.52958500     0.00000100
B     -1.72465100    -3.08960100     0.00000100
C     -0.37405600    -3.75624300     0.00000100
C     -3.01098200    -0.78682600    -0.00000000
C     -4.28069000    -1.43299800    -0.00000100
C     -5.45946500    -0.71045400    -0.00000200
C     -5.43769300     0.70427800    -0.00000200
C     -4.22712900     1.36916600    -0.00000100
C     -3.00272400     0.64894200     0.00000000
C     -1.74829600     1.32073000     0.00000100
C     -0.56947300     0.61845400     0.00000200
H      9.06765300    -3.47101400    -0.00000300
H      6.93573600    -4.72832600    -0.00000100
H      4.44465400    -4.74128500     0.00000000
H      2.02044000    -4.60228900     0.00000100
H      1.97733600     0.23273500     0.00000200
H      4.43317300     0.26281000     0.00000100
H      6.91937300     0.27402800    -0.00000100
H      9.06730700    -0.97099300    -0.00000200
H     -2.72825000    -3.75984700     0.00000100
H     -0.24082400    -4.84547400     0.00000100
H     -4.31111200    -2.52199700    -0.00000100
H     -6.41741600    -1.23664500    -0.00000300
H     -6.37548400     1.26540800    -0.00000300
H     -4.19304400     2.46222500    -0.00000100
H     -1.73422900     2.41412300     0.00000200
H      0.36320000     1.18374900     0.00000300
