042
BNPAH_000032_PAH58   C24_H16_N01_B01 -1003.17489189     0.00200000    11.03367000  5254.01335432     8.37280324   227.83558099 21982.79187447    30.54658927     0.04867909     1.32462547   127.80692951    -4.34600000    -0.15971256  -100.22114166  -419.32525671    -2.88400000    -0.10598505   -66.50662047  -278.26370003     1.46200000     0.05372751    33.71452119   141.06155667
C      2.93119800     2.63113100     0.00021400
B      2.76958900     1.13665000    -0.00010300
C      1.32709500     0.59476100    -0.00012200
C      0.13926400     1.46088400     0.00009100
C      0.45238400     2.85432200     0.00044700
C      1.76061600     3.38119700     0.00049400
C     -1.17000500     0.77911900    -0.00002500
N     -2.46084700     1.39778000    -0.00007000
C     -2.57473900     2.78158400    -0.00033400
C     -3.75221500     3.46162400    -0.00034900
C     -5.00493200     2.79661200    -0.00010000
C     -4.94528600     1.38102800     0.00008600
C     -6.18477800     0.65336400     0.00028500
C     -7.38903100     1.30179900     0.00030700
C     -7.47910600     2.72989200     0.00012700
C     -8.73082900     3.39341000     0.00014700
C     -8.79872600     4.77593800    -0.00003500
C     -7.60934600     5.53639800    -0.00024600
C     -6.37368600     4.91001400    -0.00026900
C     -6.27142400     3.49491900    -0.00008300
C     -3.67760300     0.68773200     0.00005400
C     -3.62767000    -0.72065900     0.00008900
C     -2.42680600    -1.36610100    -0.00003100
C     -1.19466200    -0.66460400    -0.00010600
C     -0.01704400    -1.43864600    -0.00025200
C      1.20498600    -0.80673900    -0.00030000
H      3.88284100     3.17458100     0.00028300
H      3.68711500     0.34272100    -0.00031100
H     -1.64635600     3.31345800    -0.00059400
H      1.81308500     4.47842200     0.00078700
H     -0.27589600     3.65423800     0.00079300
H     -3.68722400     4.54894100    -0.00057100
H     -6.18617900    -0.43474900     0.00042900
H     -8.31489700     0.72130300     0.00046600
H     -9.64451700     2.79361800     0.00030900
H     -9.76799800     5.27953100    -0.00001900
H     -7.66273300     6.62741800    -0.00039000
H     -5.47167000     5.52341800    -0.00043200
H     -4.55299200    -1.28853700     0.00015900
H     -2.39133700    -2.45746600    -0.00006000
H     -0.11026100    -2.52665700    -0.00033600
H      2.12688000    -1.39366100    -0.00043000
