042
BNPAH_000320_PAH60   C24_H16_N01_B01 -1003.17207429     0.00900000     8.45955000  5252.24528759     8.36998564   227.75891036 21975.39428328    30.53630981     0.04866271     1.32417971   127.76392025    -4.68340000    -0.17211178  -108.00177056  -451.87940802    -2.78380000    -0.10230276   -64.19595356  -268.59586968     1.89960000     0.06980901    43.80581700   183.28353834
C     -2.75047000     0.08212000    -0.00023400
C     -2.64346000     1.49026100     0.00099000
C     -1.40231900     2.10445100     0.00120600
C     -0.19938700     1.34648800     0.00025000
C     -0.32245400    -0.07231100    -0.00099300
C      0.87873000    -0.83091000    -0.00213300
C      2.11497700    -0.24164200    -0.00184600
C      2.33402300     1.18120600    -0.00031300
C      3.67415000     1.83713100     0.00017000
C      4.98269900     1.17691300     0.00055400
C      5.20766400    -0.23164100     0.00175400
C      6.44267700    -0.86341900     0.00195000
B      7.73291400    -0.06865700     0.00093000
C      7.48824200     1.41254200     0.00000100
C      6.20194700     1.99144400    -0.00003100
C      6.09316300     3.42812200    -0.00044100
C      7.24019200     4.27359600    -0.00095900
C      7.16826800     5.64324100    -0.00114500
C      5.88804700     6.23522100    -0.00078500
C      4.78756100     5.42798200    -0.00028500
N      4.84867600     4.04190400    -0.00010600
C      3.64437700     3.27165800     0.00028300
C      2.42506500     3.99202500     0.00082800
C      1.21394600     3.36583100     0.00104800
C      1.12579700     1.95621200     0.00039800
C     -1.60179100    -0.68563700    -0.00122500
H     -3.73463500    -0.39217500    -0.00040900
H     -3.54751500     2.10386000     0.00176800
H     -1.37121700     3.19373400     0.00216300
H      0.81404200    -1.92196600    -0.00331700
H      4.36468100    -0.89996800     0.00284000
H      2.93782400    -0.93293900    -0.00305800
H      6.39717900    -1.96033400     0.00293500
H      8.84102000    -0.55790500     0.00103800
H      8.34050500     2.09415700    -0.00056500
H      8.21186900     3.79160700    -0.00119400
H      8.07469100     6.25062700    -0.00154700
H      5.74471700     7.31618400    -0.00090500
H      3.80406100     5.87236000    -0.00005100
H      2.39482400     5.07518000     0.00113700
H      0.31669900     3.98055000     0.00151300
H     -1.66007000    -1.77710300    -0.00221600
