018
BNPAH_002220_PAH01   C00_H08_N05_B05  -402.45579509     0.00000000    11.27223000  1598.45789745     2.54730480    69.31569435  6687.94784293    23.50673379     0.03746036     1.01934845    98.35217418    -3.86920000    -0.14219048   -89.22587237  -373.32104999    -2.52920000    -0.09294639   -58.32473803  -244.03070393     1.34000000     0.04924409    30.90113434   129.29034606
N      0.00000000     1.39524200     1.39239200
N      0.00000000     2.52503600     0.63022600
N     -0.00000100     2.48152900    -0.75258700
N     -0.00000000     1.27019200    -1.45514800
N      0.00000000    -1.22231500    -1.52156500
B      0.00000000    -2.52883000    -0.90398500
B     -0.00000000    -2.72795300     0.82516100
B     -0.00000000    -1.32771000     1.84901800
B     -0.00000000     0.06166300     0.91391600
B      0.00000000     0.01410700    -0.78842600
H      0.00000000     1.64905300     2.38055500
H      0.00000000     3.44344600     1.04968300
H      0.00000000     3.36426100    -1.23643300
H     -0.00000000     1.45837800    -2.45458400
H      0.00000000    -1.19643700    -2.54296800
H      0.00000000    -3.44306400    -1.71098000
H     -0.00000000    -3.86985100     1.25529500
H     -0.00000000    -1.34674900     3.07042900
