036
BNPAH_000115_PAH19   C20_H14_N01_B01  -849.71115065     0.00000000     4.62819000  4505.14062134     7.17939857   195.36138599 18849.50835969    30.85712754     0.04917396     1.33809168   129.10622163    -4.72300000    -0.17356705  -108.91496826  -455.70022720    -2.60170000    -0.09561071   -59.99662776  -251.02589056     2.12130000     0.07795634    48.91834050   204.67433664
C      2.55809700     0.04993100     0.00000100
C      2.60299300    -1.37805700     0.00000100
C      1.44293300    -2.11107800     0.00000000
C      0.14482100    -1.48819500    -0.00000000
C     -1.03349000    -2.25572300    -0.00000100
B     -2.35588200    -1.54362100    -0.00000100
C     -2.34862300    -0.01338000    -0.00000100
C     -3.59517200     0.65419600    -0.00000100
C     -4.78893400    -0.04784600    -0.00000100
C     -4.87019500    -1.46352800    -0.00000100
N     -3.70178200    -2.20423900    -0.00000100
C     -3.75965800    -3.58932500    -0.00000100
C     -4.92452500    -4.28418100    -0.00000100
C     -6.17666500    -3.58738300    -0.00000000
C     -7.41349100    -4.27273000     0.00000000
C     -8.60975500    -3.57363700     0.00000100
C     -8.59350300    -2.16468900     0.00000100
C     -7.39087900    -1.47411700     0.00000100
C     -6.15051500    -2.16039600    -0.00000000
C     -1.11608400     0.66390500    -0.00000100
C      0.10734000    -0.02577200    -0.00000000
C      1.34670800     0.69561600     0.00000100
H      3.48952800     0.62142000     0.00000200
H      3.57135900    -1.88554400     0.00000200
H      1.48421600    -3.20412200     0.00000000
H     -0.87749400    -3.34172600    -0.00000100
H     -3.63838500     1.75007100    -0.00000100
H     -5.72321200     0.51001000    -0.00000100
H     -2.78955700    -4.08091300    -0.00000200
H     -4.90278000    -5.37495800    -0.00000100
H     -7.40851200    -5.36550000     0.00000000
H     -9.56121000    -4.11019500     0.00000200
H     -9.53381000    -1.60894100     0.00000200
H     -7.41402500    -0.38475200     0.00000100
H     -1.09147600     1.76070800    -0.00000100
H      1.30433900     1.78870000     0.00000100
