032
BNPAH_000172_PAH17   C18_H12_N01_B01  -772.30471851     0.00000000     8.67182000  4020.73938155     6.40745606   174.35576030 16822.77357241    30.46014683     0.04854133     1.32087697   127.44525434    -4.63880000    -0.17047276  -106.97327012  -447.57616218    -2.29650000    -0.08439482   -52.95854851  -221.57856696     2.34230000     0.08607794    54.01472161   225.99759521
N      4.57325200    -0.30610400     0.00000000
C      4.65729300     1.05992800     0.00000000
C      3.50759500     1.79666100    -0.00000000
C      2.20450000     1.19557900    -0.00000000
C      2.16574500    -0.27435400    -0.00000000
C      3.37538200    -0.94714100    -0.00000000
C      0.90422300    -1.04459500    -0.00000000
C      0.85409400    -2.45488300    -0.00000000
C     -0.38047400    -3.11217700    -0.00000000
C     -1.58467700    -2.39967200     0.00000000
C     -1.57603200    -0.99172300    -0.00000000
C     -2.80215600    -0.21113500     0.00000000
C     -2.83921800     1.16287900     0.00000000
C     -1.63243600     1.95142700    -0.00000000
C     -1.56020900     3.34512300     0.00000000
C     -0.30942700     4.02726800    -0.00000000
C      0.92676400     3.38589000    -0.00000000
C      1.00923600     1.96312400    -0.00000000
B     -0.30533900     1.19865400    -0.00000000
C     -0.31397300    -0.31939200    -0.00000000
H      5.42451700    -0.85862300     0.00000100
H      5.65972700     1.48753100     0.00000100
H      3.59234300     2.88309600     0.00000000
H      3.43679100    -2.03418900    -0.00000000
H      1.76035500    -3.06581900    -0.00000000
H     -0.40104300    -4.20525000    -0.00000000
H     -2.53534800    -2.94124200     0.00000000
H     -3.74360100    -0.76963000     0.00000000
H     -3.81792900     1.65947700     0.00000000
H     -2.47178300     3.95790200     0.00000000
H     -0.32422700     5.12130600    -0.00000000
H      1.82286500     4.01833500    -0.00000000
