036
BNPAH_000149_PAH14   C20_H14_N01_B01  -849.66795225     0.00000000     9.43404000  4478.03320877     7.13620016   194.18589734 18736.09094549    30.67146033     0.04887808     1.33004039   128.32939002    -4.43180000    -0.16286565  -102.19973668  -427.60369827    -2.51240000    -0.09232900   -57.93732083  -242.40975033     1.91940000     0.07053665    44.26241585   185.19394793
C      2.40354400     0.31633700     0.00000200
N      2.33728100    -1.05147700     0.00000100
C      1.16656200    -1.72561900    -0.00000000
C     -0.06929100    -1.07697000    -0.00000100
C     -0.03765800     0.38582900    -0.00000000
C     -1.23595000     1.15169600    -0.00000000
C     -2.48622400     0.55982300    -0.00000100
B     -2.63206200    -0.96785900    -0.00000100
C     -3.93376000    -1.74348600    -0.00000200
C     -3.94001900    -3.14067500    -0.00000100
C     -2.67239800    -3.85763200    -0.00000100
C     -2.67642400    -5.29646200    -0.00000100
C     -3.83138100    -6.02009300    -0.00000100
C     -5.11469300    -5.36627700    -0.00000000
C     -6.30969600    -6.12445400     0.00000100
C     -7.55200500    -5.50747300     0.00000200
C     -7.62392900    -4.10264400     0.00000100
C     -6.46069400    -3.34197300     0.00000000
C     -5.17937200    -3.93895100    -0.00000000
C     -1.43564300    -3.18604700    -0.00000200
C     -1.32965000    -1.78676500    -0.00000100
C      1.22934900     1.02817100     0.00000100
H      3.39810300     0.75961700     0.00000300
H      3.20287400    -1.58395200     0.00000100
H      1.25160400    -2.81205200    -0.00000000
H     -1.11773900     2.24201100    -0.00000000
H     -3.34963500     1.23787400    -0.00000100
H     -4.90204800    -1.23161800    -0.00000100
H     -1.70966200    -5.80947400    -0.00000100
H     -3.80419500    -7.11318400    -0.00000000
H     -6.23609700    -7.21577100     0.00000100
H     -8.46613300    -6.10643300     0.00000300
H     -8.59664200    -3.60424900     0.00000200
H     -6.54423800    -2.25435900    -0.00000000
H     -0.54875500    -3.83439700    -0.00000100
H      1.27590600     2.11898600     0.00000200
