036
BNPAH_000108_PAH23   C20_H14_N01_B01  -849.65611731     0.01200000     6.48450000  4470.60667451     7.12436522   193.86385233 18705.01832615    30.62059366     0.04879702     1.32783460   128.11656387    -4.58240000    -0.16840010  -105.67265521  -442.13438940    -2.59940000    -0.09552619   -59.94358850  -250.80397429     1.98300000     0.07287391    45.72906671   191.33041511
C      2.67071300    -0.38472900     0.00055200
C      2.43680500    -1.75023100     0.00173200
N      1.17615000    -2.22057700     0.00152600
C      0.03189200    -1.44035500     0.00023500
C      0.23661300    -0.01563100    -0.00103400
B     -1.01517400     0.87302900    -0.00278000
C     -2.31961400     0.14738000    -0.00261500
C     -2.47660200    -1.26004500    -0.00087000
C     -3.78456400    -1.98012800    -0.00036900
C     -3.74555800    -3.40867100    -0.00053900
C     -4.92439500    -4.21612500    -0.00120000
C     -6.16292000    -3.65551400    -0.00149900
C     -6.29809200    -2.23797800    -0.00061800
C     -7.61721500    -1.71330200    -0.00036200
C     -7.86043400    -0.35624800     0.00115500
C     -6.75140300     0.50711000     0.00267600
C     -5.45488000     0.01637300     0.00232300
C     -5.13438600    -1.37554000     0.00030700
C     -2.51645700    -4.13710700    -0.00002600
C     -1.32181200    -3.49020800     0.00056100
C     -1.25128000    -2.06649900     0.00011100
C      1.55372500     0.46479200    -0.00084700
H      3.69339600    -0.00746200     0.00070600
H      3.22940100    -2.49995100     0.00285600
H      1.05215700    -3.22948500     0.00243500
H     -0.91169400     2.07992300    -0.00424000
H     -4.68212600     0.76822800     0.00401100
H     -4.80034600    -5.30189200    -0.00151400
H     -7.06551200    -4.27177700    -0.00208200
H     -8.44591300    -2.42656900    -0.00125000
H     -8.88002900     0.03564100     0.00142200
H     -6.89968800     1.58988800     0.00424600
H     -3.20926600     0.75587900    -0.00422900
H     -2.56095200    -5.22818900     0.00000800
H     -0.42103600    -4.11217700     0.00107100
H      1.70357700     1.54815700    -0.00186200
