042
BNPAH_000060_PAH32   C24_H16_N01_B01 -1003.14322534     0.01200000    15.99133000  5234.14229523     8.34113669   226.97389032 21899.65136324    30.43105986     0.04849498     1.31961564   127.32355445    -4.22080000    -0.15511154   -97.33396105  -407.24529303    -3.41070000    -0.12534091   -78.65261110  -329.08252486     0.81010000     0.02977063    18.68134994    78.16276817
C      1.46141900    -2.33116500     0.00165700
C      0.21545000    -2.90165700     0.00032200
B     -1.01937500    -1.99266800    -0.00018900
C     -2.42190000    -2.57571300    -0.00127500
C     -3.48578200    -1.72817800    -0.00141100
C     -3.38111400    -0.28333600    -0.00081500
C     -4.61837600     0.47008000    -0.00073900
C     -5.84626000    -0.27266000    -0.00113500
C     -7.08908100     0.28595600    -0.00086000
C     -7.19296400     1.68589500     0.00003300
N     -8.45336800     2.21198200     0.00052100
C     -8.75707100     3.52722400     0.00164200
C     -7.68745900     4.40509400     0.00243400
C     -6.37850500     3.92506300     0.00193400
C     -6.01944200     2.53412500     0.00052600
C     -4.69804600     1.91268100    -0.00018500
C     -3.40542400     2.61102800    -0.00066000
C     -2.16214300     1.86338200    -0.00069800
C     -0.97344100     2.63995700    -0.00162100
C     -0.91676700     4.02085800    -0.00229100
C     -2.11278100     4.73724900    -0.00217100
C     -3.30044300     4.02912600    -0.00142500
C     -2.08634600     0.38259700    -0.00020400
C     -0.88128400    -0.43670200     0.00053700
C      0.50759500    -0.03256100     0.00215600
C      1.57840100    -0.90891800     0.00262700
H      2.38294600    -2.92685600     0.00215100
H      0.13582200    -3.99649300    -0.00024500
H     -2.63408700    -3.65231800    -0.00179900
H     -4.47146100    -2.18633200    -0.00201600
H     -5.81531600    -1.35478200    -0.00167000
H     -7.98809200    -0.33591900    -0.00118600
H     -9.21418800     1.53517200     0.00004400
H     -9.80996800     3.80402200     0.00194700
H     -7.86959200     5.47994000     0.00349400
H     -4.18082500     4.64406400    -0.00169300
H      0.85330600     0.99469100     0.00337500
H      0.05236400     4.52508000    -0.00300900
H     -2.13050500     5.82960900    -0.00278500
H     -5.63212300     4.70167700     0.00283800
H     -0.03005200     2.13078200    -0.00203700
H      2.58206900    -0.47109600     0.00388100
