038
BNPAH_000063_PAH48   C22_H14_N01_B01  -925.82344954     0.00000000    10.31177000  4804.11873754     7.65585053   208.32630409 20100.43279787    30.40581479     0.04845475     1.31852091   127.21792908    -3.90060000    -0.14334441   -89.94997358  -376.35068944    -2.80530000    -0.10309287   -64.69175534  -270.67030434     1.09530000     0.04025153    25.25821824   105.68038511
C      1.91372800     1.56704600     0.00000000
C      0.86141200     2.48516500     0.00000100
B     -0.57049000     2.02452300     0.00000100
C     -0.87951200     0.49595000     0.00000000
C      0.33299100    -0.32370500    -0.00000000
C      0.24334600    -1.74158900    -0.00000100
C     -0.95457300    -2.39897600    -0.00000100
C     -2.17948800    -1.67913200    -0.00000000
C     -3.42341100    -2.43936800     0.00000000
C     -3.45298100    -3.85331300    -0.00000000
C     -4.64838400    -4.57073100     0.00000000
C     -5.88138100    -3.91582300     0.00000100
C     -5.91909300    -2.51483200     0.00000100
C     -7.16560500    -1.80254900     0.00000100
C     -7.19941400    -0.44010100     0.00000000
C     -5.97777700     0.31738000    -0.00000000
C     -6.01023400     1.70908100    -0.00000100
N     -4.83432600     2.37632900    -0.00000100
C     -3.62404200     1.78519100    -0.00000100
C     -3.47242600     0.39582100    -0.00000000
C     -2.14746600    -0.23738700     0.00000000
C     -4.70863500    -0.35825900     0.00000000
C     -4.68826700    -1.77252000     0.00000000
C      1.64788000     0.20027700    -0.00000000
H      2.96038500     1.89691300     0.00000000
H      1.12283000     3.55068900     0.00000200
H     -2.75811600     2.44527200    -0.00000100
H      1.17348900    -2.31751100    -0.00000100
H     -0.95450000    -3.48722900    -0.00000100
H     -2.52315600    -4.41868500    -0.00000000
H     -4.61348000    -5.66274300     0.00000000
H     -6.81577600    -4.48178800     0.00000100
H     -8.09405600    -2.37875000     0.00000100
H     -8.14971500     0.09873200     0.00000000
H     -6.92631100     2.29813400    -0.00000100
H     -4.85126100     3.39431600    -0.00000200
H     -1.36040400     2.94597800     0.00000200
H      2.47345100    -0.51771600    -0.00000100
