042
BNPAH_000253_PAH56   C24_H16_N01_B01 -1003.19670525     3.08300000     9.13968000  5267.70145202     8.39461661   228.42915308 22040.06287525    30.62617123     0.04880591     1.32807647   128.13990043    -4.13730000    -0.15204297   -95.40840529  -399.18876773    -2.61490000    -0.09609580   -60.30102700  -252.29949695     1.52240000     0.05594717    35.10737829   146.88927078
C      1.42304900     0.43637400     0.27345900
C      2.67957600     0.25902700    -0.23049700
N      3.26425300    -0.99784000    -0.31151900
C      4.59008700    -1.09255800    -0.67568500
C      5.22704200    -2.30454200    -0.65385100
C      4.52694000    -3.50524800    -0.38542400
C      5.19845300    -4.76121800    -0.31776000
C      4.48268200    -5.91001600    -0.10169000
C      3.05039800    -5.91571700    -0.05285000
C      2.32284900    -4.65878200    -0.17841100
B      0.81253900    -4.77523700    -0.40224200
C      0.17435700    -6.15706500    -0.26459900
C     -1.23768100    -6.33966200    -0.40956900
C     -1.83929600    -7.56489100    -0.27447700
C     -1.06104300    -8.72925100     0.02771300
C     -1.67667000    -9.99831800     0.18591100
C     -0.93194400   -11.12579200     0.48528600
C      0.46585400   -11.01650200     0.64024200
C      1.09010300    -9.78778800     0.48810500
C      0.35973800    -8.61334400     0.17495300
C      0.98741300    -7.30470400     0.00666600
C      2.39385100    -7.14771400     0.06400000
C      3.10093900    -3.45842600    -0.20401600
C      2.52458800    -2.14832400     0.01547300
C      1.26712500    -1.93777200     0.63137800
C      0.70973400    -0.68328500     0.76783500
H      1.01190600     1.44554500     0.32307800
H      3.31340000     1.07888100    -0.56693300
H      5.07687900    -0.15264300    -0.93109700
H      6.29434900    -2.33877300    -0.88088000
H      6.28616400    -4.78453200    -0.41983700
H      5.00757000    -6.86536800    -0.00709200
H      0.12294300    -3.83929300    -0.74490900
H     -1.84639800    -5.45910200    -0.63627500
H     -2.92105300    -7.67677600    -0.39092900
H     -2.76165300   -10.06936200     0.06779400
H     -1.42249400   -12.09518800     0.60489200
H      1.05945900   -11.90136400     0.88367900
H      2.17125100    -9.73008000     0.62305000
H      3.02796700    -8.03020900     0.16836900
H      0.75542100    -2.82229900     1.00384800
H     -0.25531500    -0.55569500     1.25976200
