036
BNPAH_000130_PAH13   C20_H14_N01_B01  -849.69633714     4.94300000     2.69033000  4495.84499736     7.16458505   194.95828959 18810.61546895    30.79345889     0.04907250     1.33533075   128.83983200    -4.88040000    -0.17935139  -112.54469852  -470.88701860    -2.14150000    -0.07869867   -49.38416357  -206.62334037     2.73890000     0.10065272    63.16053495   264.26367823
C      0.03491200    -0.74619600     0.80440700
C     -0.01125300     0.71062800     0.78860900
C      0.00148300     2.94521600    -0.32922500
N      0.02648900    -2.91385500    -0.33943900
C      0.14914900    -0.65780000     3.27194100
C     -0.21406100     0.65616600     3.24837700
C      0.28080100    -1.42023100     2.05668400
C     -0.27670400     1.38240000     2.01221000
C      0.26752000     3.74994000    -1.47046400
C     -0.24422600    -3.68018700    -1.45718700
C      0.30247200     1.54094900    -0.36541500
C     -0.27818900    -1.54849400    -0.34244500
B      0.54552300    -3.60786200     0.86467200
C     -0.48368200     3.53276800     0.87835600
C      0.57118500    -2.79824400     2.10068800
C     -0.54967300     2.78445100     2.02374300
C      0.88805800     3.22557000    -2.58755100
C     -0.88803100    -3.19044500    -2.55791100
C      1.00701800     1.05680200    -1.50373500
C     -1.02405600    -1.05331600    -1.45499800
C      1.29356000     1.87143800    -2.58422200
C     -1.33082200    -1.84138800    -2.53735800
H      0.07162400    -4.71929600    -1.36912900
H      0.00007500     4.80940600    -1.43199300
H      0.29038000    -1.18238500     4.22006500
H     -0.39537500     1.20131800     4.17874900
H      0.81251000    -4.77289200     0.72255000
H     -0.72492800     4.59859800     0.88911400
H      0.76944000    -3.22511800     3.08898100
H     -0.81870300     3.24944700     2.97596100
H      1.09991600     3.86003900    -3.45149400
H     -1.08345300    -3.84677500    -3.40659200
H      1.35586800     0.02410100    -1.51205100
H     -1.37355800    -0.02395100    -1.41233800
H      1.85091800     1.46707900    -3.43266000
H     -1.92219100    -1.43787900    -3.36160100
