018
BNPAH_001723_PAH01   C02_H08_N04_B04  -399.18108346     0.00000000     9.06921000  1769.28188340     2.81953015    76.72332342  7402.67540015    26.01885123     0.04146368     1.12828417   108.86287355    -4.65170000    -0.17094682  -107.27075119  -448.82082297    -2.62580000    -0.09649637   -60.55238697  -253.35118708     2.02590000     0.07445045    46.71836422   195.46963589
B      0.00000000     1.24950400     1.45445800
N     -0.00000000     2.46746800     0.73010700
N      0.00000000     2.54814400    -0.65101000
N      0.00000000     1.36368900    -1.32790200
B     -0.00000000    -1.33391600    -1.72877000
B     -0.00000000    -2.73701700    -0.75048800
C      0.00000000    -2.46563800     0.75233000
C      0.00000000    -1.21274000     1.34904700
N      0.00000000     0.00727900     0.72168300
B      0.00000000     0.06109500    -0.77668400
H     -0.00000000     1.32055800     2.65352400
H     -0.00000000     3.37858300     1.17119400
H     -0.00000000     3.43785300    -1.12638300
H      0.00000000     1.49132000    -2.33548200
H     -0.00000000    -1.27370700    -2.94464200
H     -0.00000000    -3.89292800    -1.12686400
H     -0.00000000    -3.27832400     1.49143000
H      0.00000000    -1.13122200     2.44445300
