018
BNPAH_001355_PAH01   C04_H08_N03_B03  -395.69615371     0.00000000     8.70471000  1808.19198494     2.88153735    78.41062511  7565.47526499    26.59105860     0.04237555     1.15309743   111.25698918    -5.17650000    -0.19023287  -119.37292678  -499.45632567    -3.35650000    -0.12334910   -77.40272940  -323.85301982     1.82000000     0.06688377    41.97019738   175.60330585
C     -0.00000000     1.24188800     1.42593100
B      0.00000000     2.55717400     0.69363500
N      0.00000000     2.40114600    -0.72188700
N     -0.00000000     1.18647100    -1.32041200
C     -0.00000000    -1.11065900    -1.42545800
B      0.00000000    -2.53751700    -0.85304200
B      0.00000000    -2.61381900     0.82026500
C     -0.00000000    -1.25487200     1.46646100
C     -0.00000000    -0.01575100     0.81288100
N     -0.00000000     0.00343000    -0.67506300
H     -0.00000000     1.19018300     2.51769200
H      0.00000000     3.67436700     1.12867000
H      0.00000000     3.14702100    -1.41066700
H     -0.00000000     1.12269300    -2.33408200
H     -0.00000000    -0.86962500    -2.50059800
H      0.00000000    -3.40893300    -1.69532400
H      0.00000000    -3.60668700     1.51615400
H     -0.00000000    -1.10651200     2.55484300
