030
BNPAH_000103_PAH08   C16_H12_N01_B01  -696.17482615     0.00000000     1.77419000  3710.72118955     5.91341062   160.91209921 15525.65745708    30.92267658     0.04927842     1.34093416   129.38047881    -5.52690000    -0.20310983  -127.45334281  -533.26478631    -1.76350000    -0.06480743   -40.66727642  -170.15188454     3.76340000     0.13830240    86.78606639   363.11290177
C      2.29827400    -0.23593300    -0.00000100
C      2.14187500    -1.60751900     0.00000000
C      0.85211400    -2.20237200     0.00000100
C      0.73136300    -3.62324300     0.00000100
C     -0.50148600    -4.21155700     0.00000100
C     -1.69348200    -3.42021300     0.00000000
C     -2.94553000    -4.13037200    -0.00000000
C     -4.14468400    -3.50361000    -0.00000100
N     -4.24597200    -2.11902300    -0.00000100
B     -3.03323100    -1.25298000     0.00000000
C     -3.38292200     0.24104700     0.00000200
C     -4.69159400     0.66741500     0.00000200
C     -5.77364700    -0.25731300    -0.00000000
C     -5.52514000    -1.59944000    -0.00000100
C     -1.65420800    -1.99952600    -0.00000000
C     -0.33264400    -1.38342400    -0.00000000
C     -0.11745200     0.02359400    -0.00000200
C      1.14859600     0.58238200    -0.00000200
H      3.29527100     0.21097700    -0.00000100
H      3.01507000    -2.26580300     0.00000100
H      1.64143300    -4.22920200     0.00000200
H     -0.59729200    -5.30061700     0.00000100
H     -2.92929600    -5.22213300    -0.00000000
H     -5.08888900    -4.05248500    -0.00000200
H     -0.97033900     0.69191600    -0.00000300
H     -4.92972700     1.73664900     0.00000300
H     -6.80885500     0.08792900    -0.00000000
H     -6.33265300    -2.33550400    -0.00000200
H     -2.64127000     1.04020100     0.00000400
H      1.25475600     1.67017200    -0.00000300
