042
BNPAH_000138_PAH35   C24_H16_N01_B01 -1003.23120515     4.89600000     3.36626000  5289.35046994     8.42911651   229.36794335 22130.64236623    30.75203762     0.04900649     1.33353455   128.66652540    -4.97350000    -0.18277276  -114.69163554  -479.86980309    -2.37210000    -0.08717307   -54.70192594  -228.87285813     2.60140000     0.09559969    59.98970960   250.99694496
C      0.05657100     0.79798300     0.05549000
C      0.02776700    -0.65724400    -0.00674400
C     -0.19331200    -3.01095000    -1.11947500
C      0.07155800     3.02495100    -1.07212400
C     -0.14269500     0.70402800     2.53732100
C      0.20129000    -0.67758200     2.51295600
C     -0.22431600     1.44877300     1.28178900
C      0.20635300    -1.37142500     1.21971400
C     -0.46589900    -3.90642200    -2.18236200
C      0.35483800     3.83292000    -2.20498500
B     -0.35062900    -1.49132300    -1.25967800
C      0.36609800     1.62239100    -1.10260600
C     -0.44653600     3.59336500     0.12825300
N      0.18912100    -3.51301000     0.09894200
C     -0.53088100     2.84493100     1.27321700
C      0.33222700    -2.77488800     1.20776400
C     -0.97222700    -3.41291200    -3.36970100
C      0.98405900     3.30161200    -3.31477400
C     -0.97288300    -1.06738200    -2.59607300
C      1.06297400     1.12605900    -2.23723700
C     -1.24719000    -2.02271500    -3.55563400
C      1.36835400     1.94228300    -3.31271000
C     -0.29168600     1.34152500     3.79363200
C      0.44396400    -1.33632800     3.74136600
C     -0.07534000     0.66601000     4.98507800
C      0.31134500    -0.68397200     4.95862300
H      0.09370000     4.89396600    -2.16857300
H     -0.30926600    -4.98603400    -2.05894200
H     -0.71339500     4.65330400     0.14085300
H      0.31201900    -4.52166200     0.19338600
H     -0.85015700     3.33077900     2.19525500
H      0.53946300    -3.34297200     2.11198000
H     -1.19749100    -4.10802100    -4.18322900
H      1.21221800     3.93442000    -4.17591900
H     -1.23869700    -0.03427400    -2.84078800
H      1.37917000     0.08381200    -2.24946100
H     -1.70041900    -1.73115400    -4.51045000
H      1.91661800     1.52994100    -4.16314600
H     -0.19178500     1.18834900     5.93746000
H      0.50452900    -1.22205600     5.88958800
H      0.74116200    -2.38595900     3.75137300
H     -0.56059300     2.39688000     3.83575800
