042
BNPAH_000351_PAH69   C24_H16_N01_B01 -1003.17406692     0.00100000    20.80087000  5253.49568266     8.37197827   227.81313262 21980.62593625    30.54357955     0.04867429     1.32449496   127.79433684    -3.94510000    -0.14497975   -90.97616796  -380.64428675    -3.54480000    -0.13026900   -81.74503059  -342.02120800     0.40030000     0.01471075     9.23113737    38.62307875
N     -2.50731200    -0.40062200     0.00000100
C     -2.50867000     0.95041300     0.00000100
C     -1.30136600     1.66748300     0.00000000
C     -1.24667200     3.07383100     0.00000000
C     -0.02618600     3.76618000     0.00000000
C      0.01747200     5.19296100    -0.00000000
C      1.21855100     5.86195200    -0.00000000
C      2.46539400     5.17476500    -0.00000000
C      3.69326600     5.85732400    -0.00000000
C      4.92704700     5.19767900    -0.00000000
C      6.16212100     5.92143400    -0.00000000
C      7.35775900     5.25784300     0.00000000
C      7.46760200     3.82044900     0.00000000
C      8.72211000     3.19792100     0.00000100
B      8.85186400     1.68917900     0.00000100
C      7.51162400     0.93442100     0.00000000
C      6.31317600     1.62288100    -0.00000000
C      6.23085700     3.04816200    -0.00000000
C      4.96694400     3.74724900    -0.00000000
C      3.72527600     3.07728600    -0.00000100
C      2.48336500     3.73213300    -0.00000100
C      1.22333200     3.01099600    -0.00000000
C      1.15356700     1.60590500    -0.00000100
C     -0.05935300     0.91153400    -0.00000000
C     -0.14125300    -0.51359700    -0.00000100
C     -1.35703200    -1.14911800    -0.00000000
H     -3.40076700    -0.88551000     0.00000100
H     -3.48363600     1.43846100     0.00000100
H     -2.17867600     3.64502800     0.00000100
H     -0.92611500     5.74343200     0.00000000
H      1.23108600     6.95539000    -0.00000000
H      3.68436800     6.95146200    -0.00000000
H      6.12861100     7.01436400     0.00000000
H      8.29199100     5.82744900     0.00000100
H      9.58278300     3.88028800     0.00000100
H      9.92024900     1.11350500     0.00000100
H      7.43896800    -0.16139400     0.00000000
H      5.37597600     1.05487300    -0.00000100
H      3.74117100     1.98911600    -0.00000100
H      2.07209500     1.01865400    -0.00000100
H      0.77152300    -1.11113200    -0.00000100
H     -1.48350900    -2.23061700    -0.00000000
