038
BNPAH_000295_PAH65   C22_H14_N01_B01  -925.86340006     0.00000000     3.54943000  4829.18807309     7.69580106   209.41341336 20205.32289781    30.56448148     0.04870760     1.32540135   127.88179051    -4.67670000    -0.17186556  -107.84726489  -451.23295629    -2.19620000    -0.08070886   -50.64557554  -211.90108808     2.48050000     0.09115669    57.20168934   239.33186822
C     -2.79726900     2.71112500     0.00000000
C     -3.95185100     1.90332700     0.00000000
C     -1.50607000     2.17983500    -0.00000000
C     -3.83488700     0.52927700     0.00000100
C     -2.54967800    -0.07535300     0.00000000
C     -1.36430700     0.74258400    -0.00000000
C     -2.42182600    -1.49207100     0.00000000
C     -0.07577400     0.10707800    -0.00000000
C     -1.17761800    -2.09044200    -0.00000000
C     -0.01816200    -1.28713000    -0.00000000
C     -0.32232600     3.08326100    -0.00000000
C      0.99700900     2.53080200    -0.00000000
B      1.19158300     1.01324200    -0.00000100
C     -0.46137200     4.47688700    -0.00000000
C      0.66317900     5.31514600    -0.00000000
C      1.94586300     4.79245700    -0.00000000
C      2.13885300     3.38689500    -0.00000000
C      3.48452600     2.82875600     0.00000000
C      2.60766200     0.54730800    -0.00000100
N      3.66106700     1.43452600    -0.00000000
C      4.64464200     3.63364100     0.00000000
C      4.95601700     0.92585100    -0.00000000
C      5.92753500     3.12005400     0.00000100
C      6.07189100     1.71723900     0.00000000
H      5.00455100    -0.16218900    -0.00000000
H      4.50781900     4.71294700     0.00000100
H      7.05299700     1.23967700     0.00000100
H      6.79596000     3.77964100     0.00000100
H     -2.93993400     3.79209900     0.00000000
H     -4.93672900     2.37658800     0.00000100
H     -4.72176900    -0.10999800     0.00000100
H      2.95633400    -0.48851500    -0.00000100
H     -1.44644400     4.94440100    -0.00000000
H      0.52323400     6.39893700    -0.00000100
H      2.78907400     5.48329900    -0.00000000
H     -3.33201100    -2.09822100     0.00000100
H     -1.08946700    -3.18000700    -0.00000000
H      0.95806800    -1.78092600    -0.00000100
