038
BNPAH_000028_PAH76   C22_H14_N01_B01  -925.84075445     0.00000000     7.71595000  4814.97773123     7.67315544   208.79719462 20145.86682747    30.47454260     0.04856427     1.32150123   127.50548624    -4.68020000    -0.17199418  -107.92797681  -451.57065496    -2.86430000    -0.10526108   -66.05232767  -276.36293898     1.81590000     0.06673309    41.87564914   175.20771598
C      9.26944200     1.94983700     0.00000100
B      9.34603100     0.40191000     0.00000100
C      8.01915600    -0.31556600     0.00000100
C      6.82046900     0.41942300    -0.00000000
C      5.56046700    -0.21041800    -0.00000000
N      4.36641300     0.43515700    -0.00000100
C      4.35457700     1.85064900    -0.00000100
C      5.59102400     2.52615000    -0.00000100
C      6.82130400     1.88503500    -0.00000000
C      8.05997100     2.60373700     0.00000000
C      3.12794000     2.53831000    -0.00000100
C      1.90208700     1.89083800    -0.00000000
C      0.64531800     2.58649600     0.00000000
C     -0.53759400     1.90751200     0.00000000
C     -0.57066100     0.46519800     0.00000000
C      0.66724700    -0.25959500    -0.00000000
C      0.64820900    -1.68824600    -0.00000000
C      1.89726000    -2.37282000    -0.00000100
C      3.09316500    -1.69264200    -0.00000100
C      3.12715200    -0.27178600    -0.00000100
C      1.91152200     0.44807000    -0.00000000
C     -0.59417500    -2.36896500     0.00000000
C     -1.78553900    -1.65552200     0.00000100
C     -1.77638600    -0.25195500     0.00000100
H     10.16608000     2.58273500     0.00000100
H     10.40841200    -0.17874800     0.00000100
H      7.91440700    -1.40805800     0.00000100
H      5.52306000    -1.29507900    -0.00000000
H      5.54873400     3.61782400    -0.00000100
H      7.99427700     3.69879600    -0.00000000
H      3.17525700     3.62884100    -0.00000100
H      0.65967900     3.67911700    -0.00000000
H     -1.48723100     2.44782600     0.00000100
H      1.90258300    -3.46515800    -0.00000100
H      4.01126300    -2.27589500    -0.00000100
H     -0.60103400    -3.46152900     0.00000000
H     -2.73930200    -2.18838100     0.00000100
H     -2.72032600     0.29878500     0.00000100
