038
BNPAH_000007_PAH65   C22_H14_N01_B01  -925.85441096     0.00000000     4.38795000  4823.54732294     7.68681195   209.16880728 20181.72199918    30.52878052     0.04865071     1.32385321   127.73241770    -4.77090000    -0.17532734  -110.01956851  -460.32187465    -2.73120000    -0.10036975   -62.98296873  -263.52074117     2.03970000     0.07495759    47.03659978   196.80113348
B     -2.95078200     2.79151000     0.00000200
C     -4.09974200     1.77616000     0.00000300
C     -1.51463400     2.25610700     0.00000000
C     -3.81176200     0.44117600     0.00000200
C     -2.46039500    -0.05455900     0.00000000
C     -1.32937300     0.86961700    -0.00000000
C     -2.24524600    -1.42641500    -0.00000100
N     -0.03794600     0.28907400    -0.00000100
C     -0.94244900    -1.94513200    -0.00000200
C      0.11434500    -1.06778400    -0.00000300
C     -0.33460000     3.12502700    -0.00000100
C      0.97441300     2.55310800    -0.00000100
C      1.14368400     1.12134300    -0.00000100
C     -0.45302700     4.52111900    -0.00000100
C      0.67700700     5.34305700    -0.00000200
C      1.95112500     4.79417100    -0.00000200
C      2.13706400     3.39457100    -0.00000100
C      3.46841300     2.80406800    -0.00000000
C      2.40808600     0.57346000     0.00000000
C      3.58287200     1.38441300     0.00000100
C      4.66020900     3.56874300    -0.00000000
C      4.86924200     0.78334800     0.00000200
C      5.90807400     2.96315000     0.00000100
C      6.01616900     1.55712300     0.00000200
H      4.94021800    -0.30789400     0.00000300
H      4.60646000     4.65788600    -0.00000100
H      7.00029700     1.08264800     0.00000300
H      6.80981200     3.57991600     0.00000100
H     -3.19150800     3.97449100     0.00000300
H     -5.15560800     2.06879600     0.00000400
H     -4.59608800    -0.32527700     0.00000200
H      2.58243400    -0.50008900     0.00000100
H     -1.44866500     4.96189100    -0.00000100
H      0.55456500     6.42897700    -0.00000200
H      2.81673300     5.45628000    -0.00000200
H     -3.10769000    -2.09747000    -0.00000000
H     -0.74397900    -3.01677300    -0.00000400
H      1.13264300    -1.43780700    -0.00000400
