042
BNPAH_000202_PAH52   C24_H16_N01_B01 -1003.20536473     4.70000000    10.13676000  5273.13535481     8.40327608   228.66478941 22062.79832453    30.65776369     0.04885626     1.32944645   128.27208328    -4.65840000    -0.17119304  -107.42525686  -449.46727470    -2.53610000    -0.09319996   -58.48385581  -244.69645272     2.12230000     0.07799309    48.94140105   204.77082198
C     -2.48175500    -0.19467400     0.49153200
N     -2.34228300     1.09486500     0.97694900
C     -1.15089000     1.74897800     0.93873300
C     -0.02221400     1.14807700     0.41122900
C      1.22481500     1.83634300     0.32851600
C      2.36537500     1.25637500    -0.19929000
C      2.31916700    -0.17928800    -0.54255900
C      3.49667200    -0.87533000    -0.80046300
B      4.83216400    -0.22138400    -0.56764300
C      4.84270200     1.30643700    -0.24216400
C      3.62781000     2.00816300    -0.27828900
C      3.63257800     3.46611900    -0.38708400
C      2.52469200     4.19812300    -0.89603500
C      2.54335200     5.58035200    -1.00375100
C      3.68884100     6.29582400    -0.61309500
C      4.81146800     5.60437300    -0.18531600
C      4.82829300     4.19155500    -0.08872700
C      6.04737900     3.46077400     0.23430400
C      7.22883200     4.11300900     0.66127400
C      8.40657600     3.41159100     0.87025200
C      8.44062400     2.02167800     0.65205200
C      7.29204000     1.35808500     0.25242800
C      6.06538100     2.04409400     0.05209900
C      1.03954800    -0.82860700    -0.54478800
C     -0.11058700    -0.22053800    -0.09232800
C     -1.40833200    -0.84729600    -0.03232500
H     -3.48017900    -0.62495100     0.56323400
H     -3.15188400     1.56549500     1.36612300
H     -1.14097900     2.76420000     1.33890000
H      1.65165100     3.65377100    -1.25657900
H      3.38587200    -1.93254500    -1.07008400
H      5.85659200    -0.85412700    -0.67106200
H      1.26572800     2.85426800     0.71974200
H      1.67817400     6.10646000    -1.41526900
H      3.71310300     7.38570200    -0.68825000
H      5.71654500     6.16703900     0.04649100
H      7.22042300     5.18994100     0.83615200
H      9.30385000     3.93976300     1.20240300
H      9.36727300     1.46382900     0.80858700
H      7.30894300     0.27899100     0.10350500
H      1.00273800    -1.87061200    -0.87429900
H     -1.53626800    -1.86495100    -0.40510200
