042
BNPAH_000645_PAH67   C24_H16_N01_B01 -1003.20765188     5.80000000     4.47835000  5274.57056731     8.40556324   228.72702611 22068.80325363    30.66610795     0.04886955     1.32980829   128.30699566    -4.99180000    -0.18344527  -115.11364357  -481.63548468    -2.49370000    -0.09164179   -57.50608858  -240.60547461     2.49810000     0.09180348    57.60755499   241.03001007
C     -2.56893300     3.69713000     0.90312800
C     -1.35117800     3.25687500     1.46432800
C     -3.29489400     2.83665900     0.10059700
C     -0.84826100     2.00372400     1.15570600
C     -2.82004500     1.53180900    -0.19457400
C     -1.52787900     1.12297900     0.27108300
C     -1.03385000    -0.21162500    -0.06487000
C     -3.66218600     0.59055200    -0.87109500
C     -3.29039600    -0.71992100    -0.96399300
C     -1.99766200    -1.16009500    -0.52692000
C      0.32727200    -0.66622800     0.10736100
C     -1.68611400    -2.54859400    -0.53361400
C     -0.47163300    -2.99172500    -0.07342300
C      0.56384800    -2.06439100     0.23149200
C      1.52042600     0.19084100     0.06168400
C      2.79390300    -0.33308900     0.49864700
C      1.85289500    -2.55652700     0.64917700
C      2.91058400    -1.71869000     0.84416400
C      1.51416800     1.45480600    -0.50460300
N      2.61500200     2.28253300    -0.56929000
C      3.83972600     1.82901300    -0.03699400
C      3.89494000     0.52296400     0.46590100
C      4.97951600     2.68506500    -0.06755100
C      2.50679400     3.53473200    -1.14099700
C      4.96044500     3.94968200    -0.60633700
B      3.66044000     4.48412400    -1.21518900
H      5.88580200     2.25408900     0.37158300
H      5.89882400     4.51519000    -0.57176200
H      3.54097500     5.57680300    -1.71442100
H      1.49140100     3.72523200    -1.49926800
H     -2.95089300     4.69452600     1.13245700
H     -4.26966300     3.13663400    -0.29302500
H     -0.80388800     3.90164100     2.15581500
H      0.07972100     1.67770700     1.62477100
H     -4.63717900     0.92359600    -1.23541200
H     -3.97209800    -1.46451600    -1.38295900
H     -2.45124500    -3.25589200    -0.86315800
H     -0.26025900    -4.06066400     0.00874200
H      3.87482500    -2.09768800     1.19081300
H      1.95636900    -3.63102100     0.81947600
H      0.61916700     1.88318700    -0.94838900
H      4.86755800     0.16385500     0.80898400
