018
BNPAH_001824_PAH01   C02_H08_N04_B04  -399.07635608     0.00000000    14.60547000  1703.56444901     2.71480276    73.87354577  7127.71365466    25.05241837     0.03992357     1.08637567   104.81931846    -3.92900000    -0.14438809   -90.60489314  -379.09087290    -2.53230000    -0.09306031   -58.39622573  -244.32980846     1.39670000     0.05132778    32.20866741   134.76106444
B     -0.00000000     1.55348300     1.54051500
N     -0.00000000     2.62165900     0.57633900
N      0.00000000     2.35532300    -0.76650300
C      0.00000000     1.13797000    -1.28902900
N      0.00000000    -1.13401700    -1.34461900
C     -0.00000000    -2.40655300    -0.81984100
B     -0.00000000    -2.78790800     0.64592500
B      0.00000000    -1.50867300     1.70046700
B      0.00000000    -0.01678100     0.96465900
N      0.00000000     0.00092700    -0.59547800
H     -0.00000000     1.95201900     2.67745800
H     -0.00000000     3.62360300     0.75333000
H     -0.00000000     3.14644300    -1.40379700
H      0.00000000     1.11272300    -2.38364000
H      0.00000000    -0.98583800    -2.35053800
H     -0.00000000    -3.10825700    -1.66634900
H     -0.00000000    -3.99021600     0.84379600
H      0.00000000    -1.56590900     2.91730500
