042
BNPAH_000562_PAH56   C24_H16_N01_B01 -1003.22127619     1.64900000     7.55938000  5283.11994784     8.41918755   229.09776234 22104.57386176    30.71581365     0.04894876     1.33196373   128.51496431    -4.47010000    -0.16427315  -103.08295567  -431.29908652    -2.44390000    -0.08981167   -56.35767329  -235.80050503     2.02620000     0.07446148    46.72528238   195.49858149
C      1.37662500     0.66390700     0.06203600
C      2.70454900     0.42089200    -0.25569200
C      3.22829100    -0.89690500    -0.28664500
C      4.63721500    -1.07495500    -0.55341300
C      5.25621200    -2.29580100    -0.53741600
C      4.51890000    -3.50612200    -0.31298700
C      5.18572800    -4.74917900    -0.27944700
C      4.53401800    -5.97205500    -0.10607800
C      3.13232600    -6.05541500    -0.01157100
C      2.30947500    -4.84376700    -0.03927000
C      0.94665400    -5.04793900    -0.08342700
N      0.33437100    -6.27681000    -0.03592500
C     -1.06070100    -6.33441100    -0.10473300
C     -1.73400400    -7.50317900    -0.04572900
C     -1.03027500    -8.75558000     0.09943100
C     -1.71647600    -9.98434200     0.17824200
C     -1.02064400   -11.17883500     0.32372500
C      0.38192200   -11.15807800     0.39490000
C      1.07538000    -9.95437900     0.31826400
C      0.39152700    -8.72909400     0.16639300
C      1.10182100    -7.45311000     0.07735100
C      2.47688700    -7.30856600     0.07579900
B      3.00097100    -3.44022200    -0.10778000
C      2.36681100    -2.01910700    -0.01738300
C      1.02842300    -1.71399800     0.34054500
C      0.53165400    -0.41538500     0.37948500
H      0.99418800     1.68788800     0.08506500
H      3.37513000     1.25727200    -0.47485200
H      5.22596900    -0.17227100    -0.74352200
H      6.33880100    -2.34844800    -0.70778400
H      6.27755200    -4.76905800    -0.39587200
H      5.11573900    -6.89742800    -0.07957500
H      0.24405200    -4.22210700    -0.18578200
H     -1.54743300    -5.36481400    -0.20623900
H     -2.82328800    -7.49373600    -0.10344700
H     -2.80796500    -9.98278600     0.12382700
H     -1.56044500   -12.12625500     0.38423000
H      0.93684500   -12.09139200     0.51295100
H      2.16387000    -9.96837000     0.38114800
H      3.09027600    -8.20840400     0.12475100
H      0.35200500    -2.51991200     0.63564300
H     -0.50762500    -0.23259500     0.66573000
