042
BNPAH_000094_PAH64   C24_H16_N01_B01 -1003.19261167     4.08400000     6.61872000  5265.13268742     8.39052302   228.31776091 22029.31516417    30.61123655     0.04878211     1.32742884   128.07741373    -4.13900000    -0.15210545   -95.44760822  -399.35279280    -2.83650000    -0.10423945   -65.41124444  -273.68064672     1.30250000     0.04786599    30.03636379   125.67214608
C    -12.19798300    -7.58338500    10.35162100
C    -11.02540700    -6.89348800    10.00561900
C    -13.42970300    -6.93575300    10.49678600
B    -11.08323800    -5.40402000     9.75790300
C    -13.60222300    -5.55149400    10.22988300
C    -12.50099200    -4.76416000     9.74697500
C    -14.87231400    -4.92135100    10.46624400
C    -12.79144900    -3.41676600     9.31793600
C    -15.05142800    -3.57751500    10.27163500
C    -14.01383900    -2.78075200     9.69106000
C    -11.86924000    -2.65346900     8.51095900
C    -14.16557100    -1.37617700     9.50053500
C    -13.16125200    -0.60995200     8.95619300
C    -11.99351000    -1.23526100     8.42809700
C    -10.94613300    -0.48968700     7.80616300
C    -10.83762800    -3.27473600     7.72010200
C     -9.77455600    -2.51853500     7.16234700
C     -9.84581900    -1.10136400     7.24876400
C    -10.93685100    -4.65746000     7.38096400
N     -9.96893900    -5.24102700     6.65891800
C     -8.66848900    -3.22108600     6.51765500
C     -8.77422900    -4.62070300     6.30690200
C     -7.74009700    -5.36156600     5.71405600
C     -7.47087500    -2.60106000     6.10083900
C     -6.57344600    -4.71556400     5.31626200
C     -6.44148900    -3.33204800     5.51310300
H     -7.86090100    -6.43828000     5.56949200
H     -7.34132800    -1.52943700     6.25642100
H     -5.76518300    -5.28773400     4.85655900
H     -5.52428000    -2.82390600     5.20836900
H    -14.30046600    -7.50534600    10.83617500
H    -10.07293400    -4.73480700     9.71826900
H    -12.16430000    -8.65825600    10.57111000
H    -10.09212900    -7.47069200    10.00819900
H    -15.69225400    -5.53256100    10.85524600
H    -15.99934900    -3.09713300    10.52944800
H    -15.09344000    -0.90451200     9.83640100
H    -13.26157100     0.47540700     8.88058800
H    -11.02409000     0.60056800     7.79356800
H     -9.05194000    -0.48939000     6.81892700
H    -11.87260600    -5.20088600     7.46776200
H    -10.09036900    -6.21736600     6.40257300
