038
BNPAH_000213_PAH36   C22_H14_N01_B01  -925.83000791     0.00000000    14.76399000  4808.23417931     7.66240890   208.50476653 20117.65180623    30.43186189     0.04849626     1.31965042   127.32691015    -4.15390000    -0.15265301   -95.79121039  -400.79042426    -3.16880000    -0.11645125   -73.07426454  -305.74272284     0.98510000     0.03620176    22.71694585    95.04770142
C      6.74101300     1.08571800     0.00000000
C      5.58080400     1.81062400     0.00000000
C      4.30697600     1.15692600    -0.00000000
C      4.29131500    -0.29387200    -0.00000000
C      5.51346400    -0.97203000     0.00000000
N      6.68302500    -0.28906300     0.00000000
C      3.05025200    -0.96640300    -0.00000000
C      1.82518900    -0.29686700    -0.00000000
C      0.54579500    -1.00552900    -0.00000000
C      0.48596100    -2.41220700    -0.00000000
C     -0.72618200    -3.13746600    -0.00000000
C     -1.96842800    -2.51615300     0.00000000
B     -2.02946800    -0.99124100     0.00000000
C     -3.29900200    -0.11639200     0.00000000
C     -3.17090500     1.24406300     0.00000000
C     -1.88692000     1.91176600    -0.00000000
C     -1.83991100     3.31126600     0.00000000
C     -0.62560200     4.01428900     0.00000000
C      0.57293000     3.31708100    -0.00000000
C      0.59751600     1.89936400    -0.00000000
C      1.84191500     1.16609800    -0.00000000
C      3.08924100     1.82978900    -0.00000000
C     -0.64442500     1.16666400    -0.00000000
C     -0.67787600    -0.25502800    -0.00000000
H      7.73744300     1.52540700     0.00000000
H      5.63464500     2.90044600     0.00000000
H      5.58296700    -2.06032400     0.00000000
H      7.55304900    -0.81331800     0.00000000
H      3.06627000    -2.05668200    -0.00000000
H      1.40972800    -2.99592400    -0.00000000
H     -0.64635500    -4.23203000     0.00000000
H     -2.85442900    -3.16411100     0.00000000
H     -4.31606000    -0.52924500     0.00000000
H     -4.04737000     1.90516700     0.00000000
H     -2.78363300     3.86494700     0.00000000
H     -0.62351000     5.10675900     0.00000000
H      1.50352900     3.88588700    -0.00000000
H      3.11766900     2.91910500    -0.00000000
