042
BNPAH_000107_PAH56   C24_H16_N01_B01 -1003.22075140     3.11600000     6.22431000  5282.79063660     8.41866275   229.08348205 22103.19602353    30.71389905     0.04894571     1.33188071   128.50695363    -4.58110000    -0.16835232  -105.64267650  -442.00895847    -2.72660000    -0.10020070   -62.87689021  -263.07690864     1.85450000     0.06815162    42.76578629   178.93204983
C      1.28761800     0.38731700     0.27382900
C      2.55763200     0.28087900    -0.23266000
C      3.24553900    -0.97951100    -0.34268500
C      4.58957800    -1.00643500    -0.76302800
B      5.36154000    -2.28869600    -0.74500100
C      4.51455300    -3.53698700    -0.41323400
C      5.14649000    -4.76633100    -0.28530500
N      4.48638800    -5.90084000     0.00902000
C      3.09785700    -5.96519400     0.03354900
C      2.36207200    -4.74232600    -0.12118000
C      0.97818400    -4.90385600    -0.30946500
C      0.32757900    -6.14876200    -0.22494000
C     -1.09402800    -6.24659100    -0.42573200
C     -1.73960600    -7.44376800    -0.32881500
C     -1.02780400    -8.65532600    -0.01723300
C     -1.71084300    -9.89046700     0.09587900
C     -1.03134000   -11.05912700     0.40121600
C      0.36202200   -11.02153400     0.60586100
C      1.05238600    -9.82269000     0.49865700
C      0.38695300    -8.61380600     0.18311800
C      1.07972300    -7.33736300     0.05745600
C      2.47478800    -7.20658700     0.15221800
C      3.09042100    -3.47202500    -0.15929000
C      2.49635400    -2.18825600     0.01504400
C      1.20042600    -2.01173600     0.60703800
C      0.61216800    -0.77655800     0.74119700
H      0.80683200     1.36564100     0.35686000
H      3.10227100     1.17619800    -0.54424900
H      5.01769900    -0.03328500    -1.03164200
H      6.54962000    -2.40506500    -0.95503200
H      6.23004300    -4.85781500    -0.39055000
H      5.00417000    -6.76707000     0.12852200
H      0.37367000    -4.03487700    -0.56547700
H     -1.64843000    -5.33331100    -0.65543200
H     -2.82009200    -7.50373000    -0.48219500
H     -2.79249700    -9.90696400    -0.06171300
H     -1.57205300   -12.00459600     0.48587900
H      0.90248200   -11.93846700     0.85241900
H      2.13027400    -9.82132400     0.67043900
H      3.10393500    -8.08952000     0.28504800
H      0.69169100    -2.87936700     1.02684800
H     -0.36093500    -0.68472500     1.22971400
