038
BNPAH_000462_PAH76   C22_H14_N01_B01  -925.83639762     0.00000000    11.67097000  4812.24378140     7.66879861   208.67863933 20134.42798138    30.45723912     0.04853670     1.32075088   127.43308848    -4.24590000    -0.15603395   -97.91278080  -409.66707489    -2.93720000    -0.10794011   -67.73344162  -283.39671974     1.30870000     0.04809384    30.17933918   126.27035514
C      9.28923400     1.93629500    -0.00000200
N      9.27391800     0.55037700    -0.00000200
C      8.12946100    -0.16352300    -0.00000000
C      6.88678600     0.46671900     0.00000000
C      5.67751000    -0.26285900     0.00000100
C      4.42159400     0.35061500     0.00000200
C      4.38634000     1.84168000     0.00000100
C      5.61083300     2.55366200     0.00000100
C      6.85137800     1.92913700     0.00000000
C      8.10492300     2.61787700    -0.00000100
C      3.17222300     2.57478700     0.00000200
C      1.92473400     1.94195400     0.00000100
C      0.64911600     2.60952400     0.00000100
C     -0.53355100     1.90112400    -0.00000000
C     -0.62219800     0.44859700    -0.00000000
C      0.58141400    -0.30910900     0.00000000
C      0.56153400    -1.73034200     0.00000000
C      1.81965400    -2.44181500     0.00000100
C      3.05359900    -1.81523200     0.00000200
C      3.18596500    -0.38684200     0.00000200
B      1.90917500     0.40982900     0.00000100
C     -0.69682900    -2.38336700    -0.00000100
C     -1.87805500    -1.63848900    -0.00000200
C     -1.85369700    -0.23289200    -0.00000200
H     10.27182500     2.40498200    -0.00000300
H     10.15956800     0.05372700    -0.00000200
H      8.23245800    -1.25005100    -0.00000000
H      5.73525700    -1.35399500     0.00000100
H      5.57031200     3.64678800     0.00000100
H      8.12333300     3.70932400    -0.00000100
H      3.25600500     3.66995000     0.00000100
H      0.60169500     3.70585000     0.00000100
H     -1.47742700     2.45682400    -0.00000100
H      1.78445500    -3.53596800     0.00000100
H      3.93781100    -2.46574900     0.00000200
H     -0.74521000    -3.47690100    -0.00000100
H     -2.84060700    -2.15724700    -0.00000300
H     -2.79427900     0.32663800    -0.00000200
