042
BNPAH_000459_PAH68   C24_H16_N01_B01 -1003.19416436     0.00100000     6.41593000  5266.10701853     8.39207572   228.36001190 22033.39176553    30.61690127     0.04879114     1.32767449   128.10111491    -4.25560000    -0.15639042   -98.13646812  -410.60298261    -2.61620000    -0.09614358   -60.33100571  -252.42492789     1.63940000     0.06024684    37.80546241   158.17805473
C      2.30132200     2.05057900     0.00009100
C      3.32436400     1.12736300    -0.00006300
C      3.07173000    -0.27101400    -0.00007200
C      4.19527000    -1.14415600    -0.00017700
C      4.00191000    -2.49503800    -0.00014400
C      2.69142300    -3.04363400    -0.00005200
C      2.59144700    -4.47510700    -0.00000900
C      1.40215100    -5.10005900     0.00006600
N      0.20718400    -4.37269400     0.00006400
C     -0.93527600    -5.09764100     0.00010100
C     -2.21938200    -4.53930500     0.00005200
C     -3.37165000    -5.33266700     0.00009600
C     -4.67376500    -4.76566300     0.00002700
C     -5.82128400    -5.61674700     0.00007900
C     -7.09789200    -5.09064600     0.00001500
C     -7.29936000    -3.68740100    -0.00010600
C     -6.20325900    -2.84165400    -0.00016100
C     -4.86663000    -3.32931100    -0.00010000
B     -3.65630000    -2.39904600    -0.00016200
C     -2.28044600    -3.08146600    -0.00007300
C     -1.07425700    -2.38138900    -0.00010300
C      0.21994200    -2.93948900    -0.00000500
C      1.51190100    -2.24304600    -0.00000200
C      1.71811900    -0.78407700     0.00004900
C      0.70365300     0.21850800     0.00024800
C      0.97638500     1.57624100     0.00026200
H      2.51158200     3.12230200     0.00010100
H      4.36724300     1.45441700    -0.00017000
H      5.19941400    -0.71479300    -0.00025800
H      4.84927800    -3.18470900    -0.00019400
H      3.50411300    -5.07294000    -0.00002800
H      1.28160400    -6.18214100     0.00011100
H     -0.78453900    -6.17868200     0.00016200
H     -3.27111600    -6.42210000     0.00018600
H     -5.67530100    -6.70110200     0.00017300
H     -7.96186900    -5.76131300     0.00005800
H     -8.31513600    -3.28389400    -0.00015500
H     -6.35501500    -1.75819500    -0.00025500
H     -3.75770300    -1.19123400    -0.00026600
H     -0.34469800    -0.03903400     0.00042700
H     -1.17927200    -1.30811600    -0.00023300
H      0.14105700     2.28010100     0.00041800
