042
BNPAH_000171_PAH54   C24_H16_N01_B01 -1003.17828743     0.00100000    12.98877000  5256.14409306     8.37619878   227.92797857 21991.70688536    30.55897729     0.04869883     1.32516267   127.85876098    -4.03590000    -0.14831659   -93.07006572  -389.40515498    -3.22510000    -0.11852024   -74.37257339  -311.17484708     0.81080000     0.02979635    18.69749233    78.23030790
C      7.92077600     1.60723400    -0.00009800
C      7.80578500     0.18218500    -0.00004100
C      6.56381200    -0.40600600     0.00000700
C      5.36043100     0.37136900     0.00000200
C      4.10634800    -0.26740600     0.00005000
C      2.88766800     0.43757600     0.00004300
B      2.94854600     1.96923600    -0.00001500
C      4.31793400     2.61963500    -0.00006400
C      5.47006000     1.82719300    -0.00005700
C      6.79577400     2.39236000    -0.00010500
C      1.59252100     2.70607100     0.00000900
C      1.61059600     4.12406000     0.00000600
C      0.46438800     4.89752600     0.00007800
C     -0.76814500     4.23005800     0.00016600
C     -0.82343400     2.84310300     0.00015900
C      0.33205800     2.00435600     0.00005900
C      0.31826400     0.51348500     0.00003600
C      1.58776600    -0.20536300     0.00007300
C      1.59008000    -1.62993300     0.00014300
C      0.46727500    -2.41199500     0.00015400
C     -0.77346000    -1.76283800     0.00005700
N     -1.89266300    -2.55509300     0.00002400
C     -3.16726000    -2.11569800    -0.00011500
C     -3.35481000    -0.74658400    -0.00024600
C     -2.25253700     0.11128100    -0.00020600
C     -0.88884400    -0.31347400    -0.00002700
H      8.91288000     2.06703000    -0.00013600
H      8.70852400    -0.43419500    -0.00003500
H      6.47327800    -1.49696800     0.00005100
H      4.15638800    -1.36234400     0.00008700
H      4.49113700     3.70371100    -0.00010400
H      6.88385900     3.48276400    -0.00014900
H      2.58554400     4.61599200    -0.00004200
H      0.51429600     5.98927300     0.00008200
H     -1.70516100     4.79347600     0.00024700
H     -2.50242500     1.15849900    -0.00034500
H      2.55458900    -2.13360500     0.00019300
H      0.52554900    -3.50376400     0.00021000
H     -1.72216600    -3.55869600     0.00010000
H     -3.95826000    -2.86435700    -0.00013200
H     -4.36473600    -0.33643300    -0.00038400
H     -1.82993100     2.45732000     0.00026100
