042
BNPAH_000193_PAH41   C24_H16_N01_B01 -1003.20400680     0.00000000     8.60158000  5272.28324370     8.40191816   228.62783837 22059.23309164    30.65280956     0.04884836     1.32923162   128.25135520    -4.56130000    -0.16762468  -105.18607765  -440.09854888    -2.83350000    -0.10412921   -65.34206279  -273.39119072     1.72780000     0.06349548    39.84401486   166.70735815
C      2.72257900     0.43437600    -0.00000100
C      2.72511000    -0.95485400    -0.00000100
C      1.51946100    -1.69027700    -0.00000100
C      1.54378400    -3.13545500    -0.00000100
C      0.39542600    -3.85987400    -0.00000000
C     -0.91662000    -3.24439400     0.00000100
C     -2.05862900    -4.04013800     0.00000100
B     -3.44089800    -3.39963200     0.00000100
C     -4.78991100    -4.10689200     0.00000100
C     -5.95665300    -3.36352700     0.00000100
C     -5.92245200    -1.90147400     0.00000100
C     -7.13152600    -1.17383400     0.00000000
C     -8.35929300    -1.79847100    -0.00000100
C     -8.43986800    -3.20693600    -0.00000100
C     -9.69297700    -3.87572000    -0.00000200
C     -9.78717400    -5.24729200    -0.00000100
C     -8.58656700    -5.99580900    -0.00000000
C     -7.38186900    -5.34370100     0.00000100
N     -7.26959000    -3.97024900     0.00000000
C     -4.69342300    -1.20369700     0.00000100
C     -3.45604500    -1.85285800     0.00000100
C     -2.22781000    -1.13787500     0.00000100
C     -0.99006800    -1.77454700     0.00000100
C      0.26680000    -1.00532600     0.00000000
C      0.29834000     0.40826300     0.00000100
C      1.49533500     1.11720700    -0.00000000
H      3.66401900     0.98911900    -0.00000200
H      3.67126200    -1.50343300    -0.00000200
H      2.51715200    -3.63406200    -0.00000200
H      0.43372900    -4.95286500    -0.00000000
H     -1.88572600    -5.12468700     0.00000100
H     -4.83126900    -5.19902800     0.00000100
H     -7.07630800    -0.08226500     0.00000000
H     -9.29274500    -1.23585100    -0.00000200
H    -10.58420100    -3.24648300    -0.00000200
H    -10.75851500    -5.74460600    -0.00000200
H     -8.59176200    -7.08618900     0.00000000
H     -6.44280500    -5.88606400     0.00000200
H     -4.75497200    -0.10733000     0.00000100
H     -2.26495000    -0.04391600     0.00000100
H     -0.63619300     0.97069200     0.00000100
H      1.47552500     2.20994800     0.00000000
