036
BNPAH_000141_PAH14   C20_H14_N01_B01  -849.64408160     0.00000000    14.06612000  4463.05414634     7.11232950   193.53634372 18673.41854829    30.56886402     0.04871459     1.32559140   127.90012706    -3.89040000    -0.14296956   -89.71475599  -375.36653905    -2.89130000    -0.10625332   -66.67496247  -278.96804296     0.99910000     0.03671625    23.03979352    96.39849608
C      2.36774900     0.32800200    -0.00000100
C      2.35018800    -1.09215500    -0.00000100
C      1.14349000    -1.76041300    -0.00000000
C     -0.10851000    -1.07876800     0.00000000
C     -0.09699700     0.37738900     0.00000000
C     -1.28482900     1.14814700     0.00000000
B     -2.62901600     0.49568200     0.00000100
C     -2.61519300    -1.05672000     0.00000100
C     -3.81051500    -1.77290300     0.00000100
C     -3.88138100    -3.18719100     0.00000000
C     -2.62604700    -3.91439600     0.00000100
C     -2.65540400    -5.34798900     0.00000100
C     -3.82588800    -6.05403800     0.00000000
C     -5.08690100    -5.36070400    -0.00000000
C     -6.29250900    -6.05335200    -0.00000000
N     -7.48455500    -5.39179900    -0.00000100
C     -7.54841400    -4.02729600    -0.00000100
C     -6.39697100    -3.28671800    -0.00000000
C     -5.10746800    -3.91004400     0.00000000
C     -1.42321100    -3.20923500     0.00000100
C     -1.36046300    -1.79655400     0.00000100
C      1.18414500     1.02786800    -0.00000100
H      3.32291700     0.86043300    -0.00000100
H      3.28792000    -1.65327800    -0.00000100
H      1.15950600    -2.85178100     0.00000000
H     -1.13323000     2.23491300     0.00000000
H     -3.69055700     1.08569300     0.00000100
H     -4.73324000    -1.18684700     0.00000100
H     -1.70084600    -5.88153200     0.00000100
H     -3.82444100    -7.14633400     0.00000000
H     -6.34249900    -7.14232200    -0.00000100
H     -8.34620100    -5.92876900    -0.00000100
H     -8.54558700    -3.58784700    -0.00000100
H     -6.48396400    -2.20138900    -0.00000000
H     -0.50464400    -3.79914600     0.00000100
H      1.19279600     2.12139400    -0.00000100
