038
BNPAH_000455_PAH46   C22_H14_N01_B01  -925.87772161     0.00100000     4.29352000  4838.17498134     7.71012261   209.80312258 20242.92412193    30.62136064     0.04879824     1.32786786   128.11977292    -4.63470000    -0.17032208  -106.87872187  -447.18057231    -2.62960000    -0.09663602   -60.64001705  -253.71783135     2.00510000     0.07368607    46.23870482   193.46274096
C     -2.61287500    -0.61392700    -0.04930500
C     -2.65269000     0.79777000    -0.06115600
C     -1.48092100     1.53648100    -0.05600000
C     -0.20497300     0.91106600    -0.03875700
C     -0.17846800    -0.52000000    -0.02686800
C      1.09008400    -1.17414400    -0.00944500
C      2.25960700    -0.46264300    -0.00410100
C      2.28028400     0.97277400    -0.01559800
C      3.56559200     1.66705500    -0.00905100
C      4.81550900     0.97488400     0.00851000
C      6.03248300     1.61695300     0.01479000
C      6.11324200     3.04054100     0.00386200
C      7.33320700     3.76056300     0.00950800
C      7.35231700     5.15323700    -0.00175900
C      6.16038000     5.88639700    -0.01906700
C      4.92624100     5.21081200    -0.02520400
C      3.68401000     5.90248700    -0.04264500
N      2.54596900     5.21990300    -0.04781900
C      2.41078000     3.84912700    -0.03787200
B      1.04514100     3.20461100    -0.04555300
C      1.03395000     1.67703300    -0.03319700
C      3.62625500     3.08893500    -0.02012500
C      4.88327100     3.77176800    -0.01380100
C     -1.38955500    -1.25880700    -0.03240700
H     -3.54184500    -1.18941200    -0.05348100
H     -3.61686500     1.31269000    -0.07452300
H     -1.53077300     2.62534300    -0.06532900
H      1.11681100    -2.26756200    -0.00028500
H      3.19642600    -1.01923400     0.00934500
H      4.82236900    -0.11493900     0.01752900
H      6.95743500     1.03557800     0.02834700
H      1.66762400     5.73928300    -0.06039200
H     -1.33754100    -2.35124500    -0.02303100
H      0.06832100     3.92166900    -0.06067500
H      3.61876400     6.99120800    -0.05219500
H      8.27268100     3.20225700     0.02299100
H      8.30905300     5.68085200     0.00296300
H      6.17897900     6.97873900    -0.02786600
