042
BNPAH_000148_PAH38   C24_H16_N01_B01 -1003.21192115     0.00000000     9.37844000  5277.24957514     8.40983251   228.84319889 22080.01222239    30.68168358     0.04889438     1.33048371   128.37216410    -3.95790000    -0.14545014   -91.27134298  -381.87929902    -2.67540000    -0.09831914   -61.69619015  -258.13685959     1.28250000     0.04713101    29.57515283   123.74243942
C      8.08615300     0.42392000     0.00000100
C      6.93065800    -0.32638900     0.00000000
C      5.64693400     0.29739600    -0.00000000
C      4.44247200    -0.43922000    -0.00000100
C      3.18255800     0.16951500    -0.00000100
B      1.86640300    -0.61944700    -0.00000100
C      0.56383000     0.16996000    -0.00000100
C      0.62241900     1.62669900    -0.00000100
C      1.84628500     2.27802300    -0.00000100
C      3.11711700     1.61716600    -0.00000100
C      4.30878500     2.36124400    -0.00000000
C      5.57227700     1.74083700    -0.00000000
C      6.79355600     2.48504900     0.00000100
C      8.01357400     1.84658500     0.00000100
C     -0.63800700     2.39836100    -0.00000000
C     -0.64198300     3.81420900    -0.00000100
C     -1.81584700     4.55422100    -0.00000000
C     -3.06038600     3.90321700     0.00000000
C     -3.09296900     2.51822800     0.00000100
C     -1.90728000     1.74295700     0.00000000
C     -1.96662400     0.28515200     0.00000000
C     -3.18187100    -0.42449500     0.00000100
C     -3.22104200    -1.80895400     0.00000100
N     -2.03492400    -2.47475100     0.00000000
C     -0.84100900    -1.86325000    -0.00000000
C     -0.72084400    -0.45334700    -0.00000000
H      9.06257600    -0.06699000     0.00000100
H      6.97947400    -1.41913600     0.00000000
H      4.50128600    -1.53275800    -0.00000100
H      1.90735700    -1.83469100    -0.00000100
H      1.88210900     3.36821800    -0.00000100
H      4.26017500     3.45508400    -0.00000000
H      6.74082300     3.57747400     0.00000100
H      8.93678400     2.43212600     0.00000200
H      0.30623700     4.34984600    -0.00000100
H     -1.76688300     5.64593400    -0.00000100
H     -3.98991200     4.47661200     0.00000100
H     -4.06459600     2.02235400     0.00000100
H     -4.13488100     0.10237700     0.00000100
H     -4.13063400    -2.40583100     0.00000100
H     -2.04736400    -3.49235400     0.00000000
H      0.04105400    -2.50114800    -0.00000100
