042
BNPAH_000146_PAH71   C24_H16_N01_B01 -1003.20115074     0.00000000    16.81299000  5270.49103756     8.39906210   228.55012096 22051.73450115    30.64238975     0.04883176     1.32877977   128.20775871    -3.96910000    -0.14586174   -91.52962111  -382.95993474    -3.03610000    -0.11157462   -70.01412982  -292.93911916     0.93300000     0.03428712    21.51549130    90.02081558
C      8.93645200    -1.73266600    -0.00000400
C      7.74055500    -2.43582500    -0.00000300
C      6.48741700    -1.77710700    -0.00000000
C      5.27572000    -2.56658700     0.00000100
C      4.01913600    -2.02386100     0.00000300
B      3.87537600    -0.49256400     0.00000300
C      2.54442800     0.29290800     0.00000400
C      1.27701600    -0.30819800     0.00000300
C      0.07505600     0.41529900     0.00000200
C      0.12847800     1.86829800     0.00000200
C      1.39528900     2.48488600     0.00000300
C      2.58897100     1.74961700     0.00000400
C      3.84926900     2.42768200     0.00000400
C      5.05833300     1.75674100     0.00000300
C      5.16602200     0.33479700     0.00000200
C      6.45065900    -0.33717300     0.00000000
C      7.69692200     0.34845600    -0.00000100
C      8.90957500    -0.32336700    -0.00000400
C     -1.09838400     2.60554800     0.00000000
C     -2.36212500     1.89274700    -0.00000100
C     -3.54669900     2.62970700    -0.00000300
N     -3.52945800     3.98970800    -0.00000400
C     -2.36393700     4.69682400    -0.00000200
C     -1.16379800     4.03181200    -0.00000000
C     -2.37733600     0.45928000    -0.00000100
C     -1.19402400    -0.23491900     0.00000100
H      9.89073800    -2.26572200    -0.00000600
H      7.75046900    -3.53010100    -0.00000300
H      5.42145000    -3.65498900     0.00000100
H      3.17546400    -2.72672900     0.00000300
H      1.21191900    -1.40070200     0.00000300
H      1.47135500     3.57552100     0.00000300
H      3.84219400     3.52205400     0.00000400
H      5.96095800     2.37796300     0.00000300
H      7.70510000     1.44034100    -0.00000100
H      9.84542300     0.24208900    -0.00000500
H     -4.52893300     2.15710100    -0.00000500
H     -4.41271000     4.49154000    -0.00000500
H     -2.45223800     5.78276000    -0.00000200
H     -0.25131600     4.62595500     0.00000100
H     -3.33752900    -0.06083100    -0.00000200
H     -1.20824000    -1.32830300     0.00000100
