042
BNPAH_000095_PAH56   C24_H16_N01_B01 -1003.19695298     3.50600000    10.14319000  5267.85690123     8.39486433   228.43589400 22040.71327475    30.62707501     0.04880735     1.32811566   128.14368184    -4.58230000    -0.16839642  -105.67034916  -442.12474087    -2.57100000    -0.09448251   -59.28866894  -248.06379084     2.01130000     0.07391391    46.38168022   194.06095003
C      1.18958500     0.32857700     0.32302500
C      2.45284600     0.22597700    -0.24956800
C      3.12749600    -1.01144400    -0.37643400
B      4.60952400    -1.06850200    -0.81968400
C      5.29159200    -2.40865800    -0.65901400
C      4.55173400    -3.54678800    -0.33822700
C      5.21924500    -4.83135000    -0.25773500
C      4.55850400    -6.00803700    -0.09222100
C      3.12182400    -6.00691400    -0.05571700
C      2.40899000    -4.73470000    -0.11980700
C      1.00174300    -4.88660300    -0.30607300
C      0.33979400    -6.09957200    -0.26587000
C     -1.07275700    -6.20572500    -0.51355600
C     -1.72351200    -7.39438800    -0.44743500
C     -1.01057300    -8.59319400    -0.07880000
C     -1.66991700    -9.83119700     0.06361400
C     -0.98409200   -10.97540000     0.45538200
C      0.38788000   -10.88962900     0.72855700
C      1.06821600    -9.68022000     0.59407800
C      0.38750300    -8.52354200     0.17126200
N      1.05548200    -7.28481600    -0.00755800
C      2.42855000    -7.19500000     0.02480800
C      3.11030800    -3.50673200    -0.11007900
C      2.45369300    -2.20374500     0.04808900
C      1.20111500    -2.06742100     0.70123100
C      0.57907900    -0.82969900     0.83193600
H      0.69454800     1.29883500     0.41553500
H      2.96680200     1.12830600    -0.59350300
H      5.17526900    -0.06968200    -1.20661100
H      6.36415000    -2.56931000    -0.82402800
H      6.30968800    -4.82580000    -0.33887200
H      5.09532900    -6.95748600    -0.02180400
H      0.39443300    -4.01775100    -0.55412700
H     -1.59773600    -5.28122800    -0.75784200
H     -2.79510600    -7.46043900    -0.64568100
H     -2.74324100    -9.87122300    -0.13722600
H     -1.51008300   -11.92615500     0.56107300
H      0.93802700   -11.77287600     1.06011100
H      2.12781500    -9.64968700     0.84287900
H      2.96858500    -8.13578200     0.08774000
H      0.73225900    -2.93497600     1.16877500
H     -0.37926200    -0.76087200     1.35432500
