042
BNPAH_000197_PAH71   C24_H16_N01_B01 -1003.22012271     0.00000000    10.62182000  5282.39613109     8.41803407   229.06637467 22101.54541248    30.71160541     0.04894206     1.33178125   128.49735704    -4.34990000    -0.15985588  -100.31107780  -419.70154951    -2.51680000    -0.09249069   -58.03878724  -242.83428580     1.83310000     0.06736518    42.27229056   176.86726371
C      8.93380100    -1.71705800    -0.00000300
C      7.74465700    -2.42481000    -0.00000200
C      6.49410500    -1.75627100    -0.00000000
C      5.26201700    -2.48526700     0.00000000
C      4.05475000    -1.84339700     0.00000100
C      3.95634900    -0.41089800     0.00000200
C      2.66269800     0.23565600     0.00000200
B      1.31632900    -0.50099700     0.00000200
C      0.04276800     0.35287500     0.00000100
C      0.13604500     1.80557800     0.00000100
C      1.39028500     2.39654800     0.00000200
C      2.61967200     1.66596600     0.00000200
C      3.84407800     2.40300400     0.00000200
C      5.06170600     1.76969100     0.00000200
C      5.16523000     0.34712000     0.00000100
C      6.45367600    -0.32567200     0.00000000
C      7.69199800     0.36885700    -0.00000100
C      8.90224900    -0.30616000    -0.00000200
C     -1.11402400     2.57896200     0.00000000
C     -2.39479900     1.88097300    -0.00000100
C     -3.58800600     2.67786000    -0.00000200
C     -3.53145300     4.04213500    -0.00000200
N     -2.31213200     4.66439900    -0.00000100
C     -1.14213100     3.96297000    -0.00000000
C     -2.42774700     0.48437700    -0.00000000
C     -1.22587300    -0.24080800     0.00000100
H      9.89099800    -2.24420700    -0.00000300
H      7.75158700    -3.51838400    -0.00000200
H      5.30408900    -3.57809900     0.00000000
H      3.12921300    -2.41878500     0.00000200
H      1.19930200    -1.70536200     0.00000200
H      1.48729000     3.48645500     0.00000200
H      3.80340700     3.49662300     0.00000300
H      5.96821300     2.37697800     0.00000200
H      7.70241600     1.45979700    -0.00000000
H      9.83738000     0.25961200    -0.00000300
H     -4.56202300     2.18609500    -0.00000300
H     -4.40822400     4.68939600    -0.00000300
H     -2.27253200     5.67841600    -0.00000200
H     -0.23750500     4.56932100     0.00000000
H     -3.39169700    -0.02945100    -0.00000100
H     -1.27514100    -1.33404800     0.00000100
