042
BNPAH_000625_PAH50   C24_H16_N01_B01 -1003.25860983     0.00100000     3.75504000  5306.54716897     8.45652120   230.11366279 22202.59335497    30.85201842     0.04916582     1.33787013   129.08484507    -4.89530000    -0.17989896  -112.88830068  -472.32465006    -2.50670000    -0.09211953   -57.80587570  -241.85978394     2.38860000     0.08777943    55.08242498   230.46486612
C     -3.00553400     0.33302000     0.00004700
C     -2.89906000     1.72345400     0.00013700
C     -1.64479100     2.35292300     0.00014300
C     -0.45436400     1.60224500     0.00005800
C      0.83140100     2.19890700     0.00006000
C      2.01149200     1.44916700    -0.00002100
C      1.93122100    -0.01072500    -0.00011600
C      3.18427400    -0.71245700    -0.00021300
C      4.39183900    -0.08639500    -0.00019300
C      4.55999000     1.35210400    -0.00006600
C      5.85861300     2.03084300    -0.00002700
C      5.82626200     3.46535200    -0.00005300
C      7.01159500     4.26719200    -0.00010300
C      8.24429100     3.69897800    -0.00011500
C      8.37263800     2.27615500    -0.00003500
C      9.68796900     1.74452100    -0.00000300
C      9.92611000     0.38535900     0.00012600
C      8.81629000    -0.47470400     0.00024400
C      7.52209900     0.02544600     0.00020600
C      7.21020800     1.41685000     0.00003800
C      4.59795500     4.17076400    -0.00003300
C      3.39734900     3.51761300     0.00000300
C      3.33653700     2.10136100    -0.00002100
C      0.72522800    -0.71501300    -0.00013000
B     -0.55720000     0.07233200    -0.00004100
N     -1.91502300    -0.45847100    -0.00003700
H     -3.98292000    -0.15610300     0.00004200
H     -3.81793300     2.31194100     0.00020300
H     -1.61068100     3.44965100     0.00021500
H      0.87815600     3.29010400     0.00013200
H      3.15415200    -1.80557400    -0.00031300
H      6.74836900    -0.72640800     0.00033900
H      6.89214000     5.35341600    -0.00013800
H      9.15154900     4.30796300    -0.00016000
H     10.52071500     2.45289100    -0.00007300
H     10.94463900    -0.00925100     0.00015500
H      8.96019800    -1.55797100     0.00037400
H      5.24963200    -0.73845100    -0.00030500
H      4.62965800     5.26308400    -0.00004100
H      2.48376300     4.10860800     0.00002400
H      0.80378000    -1.80936400    -0.00020800
H     -2.08803500    -1.46134900    -0.00010000
