038
BNPAH_000544_PAH46   C22_H14_N01_B01  -925.84404691     0.00100000    14.27717000  4817.04378330     7.67644790   208.88678711 20154.51118933    30.48761888     0.04858511     1.32206827   127.56019739    -4.23250000    -0.15554151   -97.60376946  -408.37417143    -3.05350000    -0.11221406   -70.41538335  -294.61796396     1.17900000     0.04332745    27.18838611   113.75620747
C     -2.75513500    -0.48172700    -0.05187000
C     -2.63712000     0.90127500    -0.06201600
C     -1.39434300     1.58859800    -0.05567900
C     -0.16055400     0.93103100    -0.03846900
C     -0.15984100    -0.51888800    -0.02661900
C      1.07668200    -1.17183900    -0.00942700
C      2.30902600    -0.50183100    -0.00315800
C      2.37111100     0.89531300    -0.01404400
C      3.63960400     1.61700400    -0.00794000
C      4.89280700     0.96230100     0.00926800
C      6.09951100     1.65115700     0.01502600
C      6.12761600     3.05905900     0.00376800
C      7.33896400     3.83188000     0.00886700
C      7.27775300     5.19504800    -0.00286300
N      6.07242300     5.84421900    -0.01952700
C      4.85839600     5.18654600    -0.02560700
C      3.64048300     5.88766000    -0.04283100
C      2.44357300     5.18031300    -0.04835300
C      2.41010000     3.76736000    -0.03714000
C      1.19334700     3.04028900    -0.04273800
C      1.12333400     1.65058300    -0.03208000
C      3.64589100     3.04458400    -0.01955500
C      4.87878100     3.75695900    -0.01373200
B     -1.48511700    -1.31518100    -0.03283900
H     -3.76964300    -0.89727900    -0.05822200
H     -3.53630100     1.53125900    -0.07579200
H     -1.43422300     2.68056800    -0.06497900
H      1.08016100    -2.26631900    -0.00041500
H      3.22525000    -1.09364600     0.01043400
H      4.92559800    -0.12759400     0.01848900
H      7.04144400     1.09826600     0.02843300
H      1.49824000     5.72838300    -0.06174700
H     -1.46121800    -2.52788800    -0.02267700
H      0.26987500     3.62172000    -0.05622600
H      3.64101100     6.98039000    -0.05174700
H      8.30943000     3.33513200     0.02206000
H      8.16110500     5.83413500     0.00022500
H      6.06225900     6.85926000    -0.02793700
