032
BNPAH_000005_PAH21   C18_H12_N01_B01  -772.36547853     0.00000000     2.52878000  4058.86687406     6.46821609   176.00912485 16982.29900107    30.74899147     0.04900164     1.33340246   128.65378031    -4.92740000    -0.18107861  -113.62854427  -475.42182925    -2.49760000    -0.09178511   -57.59602471  -240.98176741     2.42980000     0.08929350    56.03251956   234.44006184
B      5.64576800    -1.98044700    -0.00000000
C      4.32787200    -2.68937300    -0.00000000
C      3.12300900    -1.96321200     0.00000000
C      3.13079800    -0.50671100     0.00000000
C      4.36258600     0.14504700    -0.00000000
N      5.53031800    -0.53059200    -0.00000000
C      1.87537700     0.23210800     0.00000000
C      1.81827000     1.66061100     0.00000000
C      0.62478100     2.34002600     0.00000000
C     -0.62194800     1.64644800     0.00000000
C     -1.86725200     2.32176800    -0.00000000
C     -3.05828300     1.60843500    -0.00000000
C     -3.04329200     0.20372700    -0.00000000
C     -1.83533100    -0.50529700    -0.00000000
C     -1.79512600    -1.94982700     0.00000000
C     -0.61415700    -2.62540900     0.00000000
C      0.65460100    -1.93287100     0.00000000
C      1.85358800    -2.62097500     0.00000000
C      0.65140100    -0.48115700     0.00000000
C     -0.59743200     0.21738300     0.00000000
H      6.75344500    -2.45179300    -0.00000000
H      4.23555600    -3.78051700    -0.00000000
H      4.43288300     1.23325700    -0.00000000
H      6.36575000     0.04926000    -0.00000000
H      2.74262100     2.24012500     0.00000000
H      0.61897200     3.43312700     0.00000000
H     -1.87669700     3.41480700    -0.00000000
H     -4.01325300     2.13930100    -0.00000000
H     -3.98502700    -0.35144100    -0.00000000
H     -2.74382100    -2.49304800     0.00000000
H     -0.60059200    -3.71829300     0.00000000
H      1.84309400    -3.71429500     0.00000000
