042
BNPAH_000628_PAH68   C24_H16_N01_B01 -1003.20684436     0.00500000     3.80227000  5274.06383747     8.40475571   228.70505223 22066.68309597    30.66316185     0.04886486     1.32968054   128.29466918    -4.95920000    -0.18224724  -114.36186970  -478.49006283    -2.78570000    -0.10237259   -64.23976860  -268.77919181     2.17350000     0.07987465    50.12210110   209.71087102
C      2.29441200     2.09934900     0.00025400
C      3.22982400     1.11193100    -0.00038300
N      2.95356000    -0.25368800    -0.00033500
C      4.06636200    -1.07447000    -0.00079200
C      3.95351200    -2.41651700    -0.00063400
C      2.66168300    -3.03337500    -0.00018100
C      2.65572600    -4.46921700    -0.00001800
C      1.49172300    -5.16415400     0.00033000
C      0.24077500    -4.46903900     0.00034900
C     -0.92339700    -5.23696700     0.00049900
C     -2.21212900    -4.66710500     0.00028700
C     -3.40113900    -5.42455700     0.00040800
C     -4.65702100    -4.80773300     0.00009500
C     -5.87923800    -5.55786800     0.00021400
C     -7.09666600    -4.92397800    -0.00010700
C     -7.17219300    -3.49601800    -0.00057000
C     -6.02776600    -2.73837600    -0.00070100
C     -4.73383100    -3.35643300    -0.00037800
C     -3.55196100    -2.60735100    -0.00050200
C     -2.28373200    -3.22525300    -0.00016600
C     -1.09112200    -2.45773100    -0.00026500
C      0.19915700    -3.00061700     0.00009200
C      1.48094300    -2.25485100     0.00006700
C      1.62333200    -0.77260800     0.00028400
C      0.61403400     0.18671800     0.00113800
B      0.83072500     1.68337900     0.00118700
H      2.68248800     3.12276300     0.00013200
H      4.30537700     1.30865600    -0.00095400
H      5.02385300    -0.55488900    -0.00118700
H      4.85015300    -3.03666200    -0.00090300
H      3.61931300    -4.98364800    -0.00015600
H      1.48342400    -6.25667600     0.00049000
H     -0.82383700    -6.32590000     0.00072400
H     -3.33857700    -6.51637900     0.00074300
H     -5.82117800    -6.64948800     0.00056800
H     -8.01945600    -5.50912700    -0.00001000
H     -8.15119100    -3.01088000    -0.00082000
H     -6.08355600    -1.64669600    -0.00105600
H     -3.61202900    -1.51533700    -0.00085300
H     -0.40283400    -0.17079100     0.00192400
H     -1.25804200    -1.39159100    -0.00075200
H     -0.09254300     2.46318700     0.00193700
