038
BNPAH_000166_PAH62   C22_H14_N01_B01  -925.84058462     0.00200000     3.40896000  4814.87116645     7.67298561   208.79257353 20145.42096043    30.47386814     0.04856320     1.32147198   127.50266430    -5.00610000    -0.18397078  -115.44340940  -483.01522494    -2.13240000    -0.07836426   -49.17431258  -205.74532384     2.87370000     0.10560653    66.26909682   277.26990110
C      4.69193000     2.00652400    -0.00018200
C      4.81038500     0.60185800    -0.00050300
C      3.66228900    -0.15776500    -0.00045400
C      2.32838000     0.34440300    -0.00007700
N      2.27057700     1.77118100     0.00011100
C      3.43908100     2.53520400     0.00009400
C      1.10170200     2.47592700     0.00026400
B     -0.20501500     1.78749900     0.00019300
C     -1.55046200     2.52780700     0.00024200
C     -2.68451700     1.78065700     0.00012500
C     -2.65703000     0.33085200    -0.00002100
C     -1.42748800    -0.42655700    -0.00003300
C     -1.49827600    -1.84496200    -0.00014800
C     -2.76008200    -2.47847500    -0.00027700
C     -3.93839900    -1.74074400    -0.00028200
C     -3.88498300    -0.34805900    -0.00014800
C     -0.24744900    -2.59957500    -0.00005000
C     -0.32536700    -4.01496700    -0.00004400
C      0.78614100    -4.83459400     0.00018700
C      2.04312500    -4.22550800     0.00045900
C      2.14654800    -2.84236200     0.00043100
C      1.03782400    -1.94697500     0.00011200
C      1.09372000    -0.44937500     0.00002700
C     -0.15143700     0.25056800     0.00005600
H      5.55660300     2.67132400    -0.00019500
H      5.78595100     0.11387200    -0.00079900
H      3.16456500    -2.49420700     0.00073700
H      3.25320500     3.60787900     0.00029000
H      1.26206400     3.55680200     0.00037200
H     -1.64032900     3.62042400     0.00034300
H     -3.68181300     2.23741100     0.00013100
H     -2.83868300    -3.56421300    -0.00036400
H     -4.90192000    -2.25602000    -0.00038000
H     -4.80806300     0.23762600    -0.00014100
H     -1.30563400    -4.48650800    -0.00019700
H      0.67867100    -5.92144600     0.00020000
H      2.95702400    -4.82429400     0.00070900
H      3.81625000    -1.21942200    -0.00078800
