038
BNPAH_000121_PAH29   C22_H14_N01_B01  -925.86931249     0.00000000     6.99183000  4832.89817820     7.70171349   209.57429874 20220.84597759    30.58796315     0.04874502     1.32641961   127.98003782    -4.53140000    -0.16652588  -104.49656726  -437.21363742    -3.15700000    -0.11601761   -72.80215007  -304.60419591     1.37440000     0.05050827    31.69441719   132.60944151
C      7.52813300     2.02220100    -0.00000100
C      7.47125400     0.61488600    -0.00000100
C      6.28243000    -0.12604200    -0.00000000
C      5.01855800     0.50052300     0.00000000
C      4.98991100     1.95082900    -0.00000000
B      6.26047000     2.81357800    -0.00000100
N      3.76255900     2.55404900     0.00000000
C      2.56025200     1.93860300     0.00000100
C      1.34627300     2.67885300     0.00000100
C      0.14183000     2.02342300     0.00000100
C      0.05530700     0.59227800     0.00000100
C      1.26739700    -0.15114500     0.00000100
C      1.23784200    -1.58963900     0.00000100
C      2.48651000    -2.29870200     0.00000100
C      3.68798800    -1.64550800     0.00000100
C      3.76515900    -0.21114900     0.00000100
C      2.53742100     0.51185900     0.00000100
C      0.01044900    -2.24956300     0.00000000
C     -1.21425200    -1.54406900    -0.00000000
C     -2.45941200    -2.24027100    -0.00000100
C     -3.65534900    -1.55655000    -0.00000100
C     -3.65370500    -0.13918500    -0.00000100
C     -2.46419800     0.56367300    -0.00000000
C     -1.20814300    -0.10394500     0.00000000
H      8.52863500     2.46963100    -0.00000100
H      8.40516900     0.03872800    -0.00000100
H      6.34660900    -1.21497200    -0.00000000
H      6.15187300     4.02471600    -0.00000100
H      3.78049600     3.57415400     0.00000000
H      1.38561800     3.77101300     0.00000100
H     -0.77217800     2.61723100     0.00000100
H      2.45917500    -3.39147300     0.00000100
H      4.61173500    -2.22349500     0.00000100
H     -0.00971700    -3.34281200     0.00000000
H     -2.44445500    -3.33316200    -0.00000100
H     -4.60286600    -2.10001500    -0.00000200
H     -4.60208500     0.40318700    -0.00000100
H     -2.49967300     1.65367500    -0.00000000
