042
BNPAH_000194_PAH54   C24_H16_N01_B01 -1003.19045424     0.00200000    10.04003000  5263.77888026     8.38836559   228.25905427 22023.65083501    30.60336558     0.04876957     1.32708752   128.04448159    -4.04340000    -0.14859221   -93.24301983  -390.12879498    -3.08440000    -0.11334961   -71.12795429  -297.59936074     0.95900000     0.03524260    22.11506554    92.52943423
C      7.95792700     1.56401100     0.00020800
C      7.80497500     0.15832300     0.00009600
C      6.54210700    -0.41020600     0.00000500
C      5.37554600     0.40602800     0.00002100
C      4.07935100    -0.18832700    -0.00007300
C      2.88178600     0.52299700    -0.00006600
C      2.89254800     1.97032600     0.00004400
B      4.25617900     2.69138900     0.00015600
C      5.51779600     1.83260800     0.00013800
C      6.83015200     2.37286300     0.00022800
C      1.63907300     2.65014400    -0.00002200
C      1.65446900     4.08625000    -0.00001400
C      0.51800100     4.84976300    -0.00018600
C     -0.74390800     4.20562000    -0.00041100
C     -0.81268500     2.83418900    -0.00039200
C      0.33996900     1.97439300    -0.00013500
C      0.29544900     0.53336900    -0.00006200
C      1.57246300    -0.16652700    -0.00014800
C      1.58469000    -1.55451100    -0.00034200
N      0.47116900    -2.30220000    -0.00038600
C     -0.78532700    -1.75318800    -0.00014700
C     -1.87545800    -2.64918000    -0.00010400
C     -3.17146500    -2.17351700     0.00024700
C     -3.36339100    -0.78346700     0.00059700
C     -2.28471000     0.09027300     0.00053400
C     -0.92046800    -0.32605200     0.00009000
H      8.95908300     2.00298000     0.00027900
H      8.69040100    -0.48396200     0.00008000
H      6.43317300    -1.49973400    -0.00008200
H      4.08325800    -1.28055100    -0.00014200
H      4.37941600     3.89402400     0.00024400
H      6.94294800     3.46136200     0.00031500
H      2.63150100     4.56354900     0.00010600
H      0.58494200     5.94048100    -0.00019400
H     -1.66682700     4.79005900    -0.00061500
H     -2.54625500     1.13550700     0.00090300
H      2.51309500    -2.11875100    -0.00048300
H      0.55331400    -3.31462900    -0.00054200
H     -1.66896400    -3.72312200    -0.00032700
H     -4.01875400    -2.86180000     0.00029500
H     -4.37374000    -0.36961000     0.00094100
H     -1.81054000     2.42886400    -0.00065400
