042
BNPAH_000611_PAH52   C24_H16_N01_B01 -1003.19470371     5.23600000     8.08589000  5266.44546197     8.39261506   228.37468820 22034.80781288    30.61886896     0.04879427     1.32775981   128.10934773    -4.88630000    -0.17956821  -112.68075575  -471.45628206    -2.97070000    -0.10917121   -68.50596998  -286.62897839     1.91560000     0.07039700    44.17478577   184.82730367
C     -2.53639800    -0.14103000    -0.49452200
C     -2.33503900     1.16956600    -1.05057400
C     -1.11832500     1.82199800    -1.03231700
C      0.02611000     1.21136300    -0.43522200
C      1.26766500     1.87798400    -0.40175000
C      2.40376100     1.27391500     0.14011900
C      2.37673100    -0.12134000     0.58401400
C      3.63284200    -0.72862500     0.82915200
C      4.82056200    -0.06550300     0.59613500
C      4.83568600     1.30869000     0.28259100
N      3.62922400     1.98101700     0.24654700
C      3.63708500     3.40083100     0.41034600
C      2.53830300     4.05820300     1.00130100
C      2.54214500     5.43769600     1.15824200
C      3.64550900     6.19482300     0.73377200
C      4.75963800     5.54668000     0.22234900
C      4.79762600     4.14116000     0.07568000
C      6.01551400     3.42943300    -0.29121800
C      7.17125900     4.08007500    -0.77226600
C      8.34957700     3.37960300    -0.99225900
C      8.40116500     1.99936600    -0.73079000
C      7.27088200     1.33560600    -0.27785000
C      6.05270900     2.02710600    -0.06525100
C      1.17071900    -0.83791600     0.65100800
B     -0.11507100    -0.21670700     0.16389200
C     -1.51777100    -0.85144700     0.09773100
H     -3.54868600    -0.55759000    -0.56757600
H     -3.19531900     1.66939600    -1.50744400
H     -1.04168600     2.82323600    -1.47543800
H      1.68689400     3.47573100     1.34888100
H      3.64955400    -1.77467200     1.14562600
H      5.76748300    -0.59381400     0.68223500
H      1.35459800     2.88081300    -0.83158700
H      1.68448200     5.92437300     1.62719400
H      3.64610200     7.28128700     0.84290100
H      5.64380700     6.13042600    -0.03570400
H      7.14193200     5.15090800    -0.97743100
H      9.23262100     3.90124000    -1.36767100
H      9.32550600     1.44252600    -0.89865100
H      7.32314200     0.25947000    -0.11542200
H      1.26557900    -1.87787700     0.98949100
H     -1.75428500    -1.84803000     0.49173800
