042
BNPAH_000233_PAH54   C24_H16_N01_B01 -1003.21368486     0.00100000     6.40094000  5278.35631785     8.41159622   228.89119179 22084.64283388    30.68811813     0.04890463     1.33076274   128.39908626    -4.64070000    -0.17054258  -107.01708516  -447.75948431    -2.76980000    -0.10178827   -63.87310588  -267.24507502     1.87090000     0.06875431    43.14397928   180.51440929
C      7.88429500     1.78102500    -0.00005700
C      7.79106800     0.36832000    -0.00002700
C      6.58461600    -0.32888200    -0.00000100
C      5.34953200     0.36678600    -0.00000200
C      4.10232700    -0.28341700     0.00002400
C      2.87175500     0.39681700     0.00002300
C      2.91817800     1.81287500    -0.00000500
N      4.12890100     2.41044600    -0.00003000
C      5.35917200     1.81466600    -0.00003100
B      6.65339000     2.63154500    -0.00006100
C      1.70227300     2.59748500     0.00000700
C      1.79118600     4.01001700     0.00000600
C      0.67309300     4.82363500     0.00004600
C     -0.58214800     4.20875300     0.00009700
C     -0.68730700     2.82412800     0.00009400
C      0.42327100     1.93860800     0.00003500
C      0.33631100     0.44999200     0.00002000
C      1.56637600    -0.26978800     0.00004100
C      1.58457900    -1.69648700     0.00007900
C      0.43970000    -2.43215400     0.00008500
C     -0.82398100    -1.78833200     0.00003200
C     -1.98081000    -2.61254000     0.00001600
C     -3.25031200    -2.07847900    -0.00006300
C     -3.36934500    -0.67727800    -0.00013800
C     -2.25254500     0.14263000    -0.00011900
C     -0.90880800    -0.34585600    -0.00001600
H      8.90011800     2.19337600    -0.00007500
H      8.71117200    -0.22912700    -0.00002500
H      6.57309900    -1.42180900     0.00002100
H      4.12337800    -1.37322300     0.00004400
H      4.15957000     3.42768600    -0.00004900
H      6.60580800     3.84587300    -0.00008500
H      2.76663200     4.50051900    -0.00002200
H      0.77558800     5.91037100     0.00004600
H     -1.49476400     4.80880700     0.00014300
H     -2.47915000     1.19606400    -0.00020300
H      2.53725900    -2.22042100     0.00010600
H      0.47833300    -3.52393600     0.00011800
H     -1.83148600    -3.69527400     0.00006200
H     -4.13501900    -2.71856900    -0.00007800
H     -4.35806400    -0.21206700    -0.00021700
H     -1.69495100     2.44725700     0.00015400
