026
BNPAH_000005_PAH06   C14_H10_N01_B01  -618.75798036     0.00000000     7.10632000  3219.78528567     5.13105446   139.62310367 13471.58163524    30.37533288     0.04840617     1.31719909   127.09039277    -5.04640000    -0.18545178  -116.37274949  -486.90358386    -2.66280000    -0.09785610   -61.40562725  -256.92114440     2.38360000     0.08759569    54.96712224   229.98243946
B      3.66897500    -0.02527400     0.00040200
C      2.84572800     1.25495400     0.00041500
C      1.43436000     1.26041800     0.00023500
C      0.71415200     0.02551600     0.00002900
C      1.44045800    -1.23610400     0.00000500
C      0.65675900    -2.40147900    -0.00020200
N     -0.68318800    -2.37191800    -0.00037200
C     -1.43284600    -1.20260400    -0.00036000
C     -2.83116700    -1.23240800    -0.00054300
C     -3.53510600    -0.02383900    -0.00052200
C     -2.85680900     1.19769900    -0.00032200
C     -1.45037100     1.25360000    -0.00013600
C     -0.70846600     2.48153700     0.00007300
C      0.65992300     2.47787500     0.00024800
C     -0.70330300     0.02459100    -0.00015300
C      2.85300900    -1.29510400     0.00018000
H      4.87943100    -0.01908200     0.00055800
H      3.30767000     2.25183300     0.00056600
H      1.11414300    -3.39317100    -0.00023500
H     -1.19055100    -3.25362200    -0.00051800
H     -3.36078000    -2.18884700    -0.00070000
H     -4.62710800    -0.04001700    -0.00066400
H     -3.42263800     2.13250400    -0.00030900
H     -1.26166800     3.42415400     0.00008800
H      1.20647400     3.42494600     0.00040600
H      3.28245900    -2.30580800     0.00014200
