042
BNPAH_000016_PAH61   C24_H16_N01_B01 -1003.19081654     6.62800000    11.01645000  5264.00622952     8.38872790   228.26891307 22024.60206431    30.60468738     0.04877167     1.32714484   128.05001200    -4.27120000    -0.15696371   -98.49621267  -412.10815381    -2.76290000    -0.10153470   -63.71398810  -266.57932622     1.50830000     0.05542900    34.78222457   145.52882759
B     -2.77997600     3.96907900    -0.80853600
C     -1.34346300     3.81006100    -0.40265000
C     -3.62652700     2.70177200    -0.66912100
C     -0.77227200     2.54005600    -0.15968300
C     -2.99745600     1.45542000    -0.29143700
C     -1.55487100     1.34759900    -0.28376200
C     -5.04416200     2.73716500    -0.82145400
C     -3.84704100     0.42570000     0.23633000
C     -5.86785400     1.67386600    -0.53404800
C     -5.29006000     0.51780300     0.06902000
C      0.63456300     2.38489900     0.25936400
C     -0.86047400     0.09083900    -0.54857400
C      1.25077500     1.10091600     0.29761400
C      0.52745600    -0.04771600    -0.24483400
C     -6.08837000    -0.52359500     0.54433800
C     -3.37920700    -0.65218300     1.05012900
N     -5.55693900    -1.56271600     1.22587500
C     -4.22167700    -1.62325600     1.52325100
C     -1.49592800    -0.98064600    -1.23431900
C      1.17501200    -1.27159400    -0.53400100
C     -0.83763600    -2.16769400    -1.51442900
C      0.50863600    -2.32829600    -1.13875000
C      1.38292800     3.49749400     0.71109000
C      2.67498800     3.36180200     1.20028800
C      2.56335700     0.98384000     0.81092900
C      3.27090600     2.09122800     1.25670100
H      0.92289400     4.48577100     0.70410400
H      3.21796600     4.24157900     1.55432600
H      3.03180600     0.00001300     0.86980300
H      4.28168200     1.97101000     1.65428800
H     -3.28252300     5.01986800    -1.14507600
H     -0.67124100     4.66986400    -0.32367500
H     -5.48159800     3.67126600    -1.18574600
H     -6.94940300     1.72299500    -0.68100100
H     -7.16957100    -0.53679700     0.40133500
H     -6.17218200    -2.29931900     1.55941400
H     -3.89703100    -2.46049600     2.13977100
H     -2.32435100    -0.71152100     1.31195700
H     -2.52385100    -0.84911400    -1.57606500
H     -1.35698900    -2.96342000    -2.05502200
H      1.03986100    -3.25680400    -1.36126100
H      2.23720400    -1.38018000    -0.30935600
