018
BNPAH_001848_PAH01   C02_H08_N04_B04  -399.10126532     0.00000000     9.21339000  1719.19523336     2.73971200    74.55136072  7193.11285638    25.28228284     0.04028988     1.09634354   105.78107140    -4.39990000    -0.16169334  -101.46410520  -424.52581615    -2.47980000    -0.09113097   -57.18554696  -239.26432848     1.92010000     0.07056237    44.27855824   185.26148767
B     -0.00000000     1.58841500     1.60546300
N      0.00000000     2.61337300     0.59133900
N      0.00000000     2.47930300    -0.76006800
N     -0.00000000     1.26864900    -1.35065900
C     -0.00000000    -1.28758600    -1.46785600
N     -0.00000000    -2.43269600    -0.76638300
C      0.00000000    -2.66608500     0.59734400
B     -0.00000000    -1.57891400     1.64939900
B     -0.00000000     0.01134400     1.03199600
B     -0.00000000     0.01825600    -0.65681000
H     -0.00000000     2.11276500     2.70035300
H      0.00000000     3.60551200     0.82193300
H      0.00000000     3.31043400    -1.33656900
H      0.00000000     1.37842300    -2.36615300
H     -0.00000000    -1.44094300    -2.55410900
H      0.00000000    -3.28165900    -1.33408200
H      0.00000000    -3.74634300     0.78710500
H      0.00000000    -1.95224600     2.80775900
