042
BNPAH_000250_PAH43   C24_H16_N01_B01 -1003.21669172     0.00200000     6.59176000  5280.24315378     8.41460308   228.97301274 22092.53735542    30.69908810     0.04892211     1.33123845   128.44498461    -4.79390000    -0.17617258  -110.54996112  -462.54103731    -2.68990000    -0.09885200   -62.03056810  -259.53589692     2.10400000     0.07732057    48.51939302   203.00514038
C      2.11715700    -1.17609500     0.00000400
C      0.97348400    -1.95140400     0.00004600
C     -0.31114300    -1.34945300     0.00004100
C     -1.50040000    -2.13074900     0.00009200
C     -2.74180000    -1.55578500     0.00008300
C     -2.95684000    -0.13496500     0.00001800
C     -1.76804900     0.67472300    -0.00001100
C     -1.87308600     2.09582000    -0.00003200
C     -3.09213400     2.70125900    -0.00001800
C     -4.29031300     1.93119100    -0.00000100
C     -5.49195900     2.66264700     0.00001700
N     -6.64749600     2.01848000     0.00003100
C     -6.79609500     0.66101000     0.00001100
B     -8.24208000     0.12509700     0.00001200
C     -9.52700500     0.94347300     0.00005200
C    -10.72489900     0.24448700     0.00004200
C    -10.79195100    -1.18202100    -0.00000500
C     -9.65959900    -1.98006800    -0.00004600
C     -8.36640000    -1.38852700    -0.00004000
C     -7.16264800    -2.13044300    -0.00008900
C     -5.88784700    -1.56850200    -0.00008100
C     -5.60671200    -0.16537600    -0.00002000
C     -4.28689500     0.49069100    -0.00000100
C     -0.44218800     0.07192700    -0.00000800
C      0.75691300     0.83693300    -0.00004900
C      2.00169400     0.23132300    -0.00004400
H      3.10404100    -1.64453100     0.00000700
H      1.04008300    -3.04236100     0.00008500
H     -1.41476500    -3.22028800     0.00014200
H     -5.08777100    -2.29235900    -0.00013800
H     -0.97553000     2.71106800    -0.00004900
H     -3.17322100     3.79086000    -0.00002300
H     -5.51077900     3.75270600     0.00002400
H     -7.51947000     2.54945000     0.00004800
H     -9.61085200     2.04235100     0.00009000
H    -11.67961400     0.78507300     0.00007100
H    -11.77991700    -1.65210800    -0.00001100
H     -9.77067800    -3.07178500    -0.00008500
H     -7.20689300    -3.22800100    -0.00013800
H     -3.58063200    -2.23217500     0.00013800
H      0.71722400     1.92584700    -0.00008700
H      2.90171600     0.85063000    -0.00007800
