042
BNPAH_000199_PAH68   C24_H16_N01_B01 -1003.20027456     0.04000000     6.98540000  5269.94122284     8.39818591   228.52627874 22049.43407636    30.63919316     0.04882666     1.32864116   128.19438418    -4.53510000    -0.16666185  -104.58189129  -437.57063316    -2.67180000    -0.09818684   -61.61317218  -257.78951240     1.86330000     0.06847501    42.96871911   179.78112076
C      1.96004200     1.99271300     0.00459700
C      3.10271200     1.16617000    -0.00114100
C      3.00956600    -0.22396400    -0.00241200
C      4.18367400    -1.04096300    -0.00665500
C      4.05178500    -2.39009900    -0.00593300
C      2.77555400    -3.07680400    -0.00261500
C      2.83101800    -4.47207900    -0.00141200
B      1.57486000    -5.28552300     0.00266500
C      0.25468800    -4.48113900     0.00259800
C     -0.92970700    -5.20848300     0.00421000
C     -2.21870500    -4.61962800     0.00248700
C     -3.41458600    -5.35866900     0.00404300
C     -4.66618800    -4.72682000     0.00127600
C     -5.89594000    -5.46112200     0.00281500
C     -7.10729600    -4.81304500    -0.00007400
C     -7.16226700    -3.38588200    -0.00471400
C     -6.00648200    -2.64300200    -0.00635200
C     -4.72148900    -3.27680900    -0.00345100
C     -3.52517900    -2.54528800    -0.00501000
C     -2.26815800    -3.18024300    -0.00197100
C     -1.05090500    -2.44044200    -0.00335600
C      0.23011700    -3.01174000    -0.00017400
C      1.53471600    -2.29129100    -0.00062100
C      1.71179200    -0.88278600     0.00113400
N      0.65397600     0.01445600     0.00806000
C      0.73732900     1.36821600     0.00977500
H      2.02936500     3.07983000     0.00579400
H      4.09853800     1.61598900    -0.00432200
H      5.16321900    -0.55770200    -0.00933600
H      4.94084400    -3.02510900    -0.00800000
H      3.83956300    -4.90086200    -0.00291400
H      1.54039100    -6.49544000     0.00481800
H     -0.85685900    -6.29987000     0.00647700
H     -3.36387800    -6.45117800     0.00735400
H     -5.85050400    -6.55340700     0.00635100
H     -8.03733400    -5.38656900     0.00115300
H     -8.13433900    -2.88653300    -0.00697200
H     -6.05034400    -1.55042800    -0.00991800
H     -3.57528700    -1.45145400    -0.00857100
H     -0.27280300    -0.38820500     0.01414000
H     -1.27304600    -1.37394000    -0.00946000
H     -0.21551200     1.89915200     0.01563600
