042
BNPAH_000188_PAH61   C24_H16_N01_B01 -1003.18405595     6.02000000     9.62695000  5259.76389154     8.38196730   228.08494789 22006.85212220    30.58002263     0.04873237     1.32607528   127.94681468    -4.27040000    -0.15693431   -98.47776423  -412.03096554    -2.92300000    -0.10741827   -67.40598184  -282.02662802     1.34740000     0.04951604    31.07178239   130.00433753
C     -2.70190900     3.81823300    -0.69209100
C     -1.33933100     3.78190900    -0.46194900
C     -3.52767800     2.67485100    -0.52673700
C     -0.70353200     2.54838700    -0.19634200
C     -2.92984500     1.40591900    -0.18198100
C     -1.49534800     1.35791200    -0.21424300
C     -4.94220600     2.81811800    -0.68381700
B     -3.88910000     0.27245700     0.28393100
C     -5.82688400     1.78730000    -0.43665000
C     -5.39290300     0.53052900     0.07166900
C      0.69591500     2.44023200     0.16567700
C     -0.77825400     0.12351000    -0.44744800
C      1.30948300     1.16537700     0.27476400
N      0.59430000     0.03801700    -0.20486900
C     -6.33264200    -0.46672400     0.44965700
C     -3.54061100    -1.02108400     1.03058100
C     -5.92647200    -1.64200000     1.06253700
C     -4.55783000    -1.89802400     1.36995500
C     -1.39457100    -0.98560500    -1.08328400
C      1.28181700    -1.12675400    -0.50459200
C     -0.70742700    -2.14124600    -1.37930700
C      0.66670700    -2.21690100    -1.05156400
C      1.47320000     3.56924300     0.52982600
C      2.76425800     3.44167700     1.01397900
C      2.60513700     1.03629700     0.81586100
C      3.32788600     2.16359800     1.17875700
H      1.02332800     4.55978000     0.46133600
H      3.33040400     4.33123200     1.29784600
H      3.04727300     0.05465700     0.98270300
H      4.32631400     2.04911800     1.60526700
H     -3.17400500     4.76855300    -0.95870000
H     -0.75545000     4.70149300    -0.51930100
H     -5.31831600     3.79594000    -0.99922500
H     -6.89878100     1.96875100    -0.59157400
H     -7.40445300    -0.29471700     0.28463400
H     -6.67694000    -2.38216300     1.35719000
H     -4.33317900    -2.82330500     1.91627000
H     -2.52957800    -1.30188400     1.35522600
H     -2.44707300    -0.87373900    -1.33548100
H     -1.20952400    -2.96889900    -1.88228100
H      1.26350300    -3.10235800    -1.27349500
H      2.35169600    -1.10112700    -0.32560600
