042
BNPAH_000099_PAH64   C24_H16_N01_B01 -1003.17158155     5.08300000    12.75151000  5251.93608722     8.36949290   227.74550217 21974.10058893    30.53451213     0.04865984     1.32410176   127.75639875    -3.77590000    -0.13876177   -87.07432324  -364.31896843    -2.91580000    -0.10715367   -67.23994589  -281.33193362     0.86010000     0.03160809    19.83437735    82.98703481
C    -12.28861600    -7.54569200    10.72762100
C    -11.10089300    -6.87797200    10.43116300
C    -13.54965400    -6.92136100    10.64426200
B    -11.15263000    -5.42976500     9.98456400
C    -13.70792800    -5.58961800    10.21309600
C    -12.56497900    -4.82277600     9.76574800
C    -15.00400900    -4.96933300    10.25940500
C    -12.80454400    -3.50666000     9.25812700
C    -15.16502800    -3.64037900     9.98032800
C    -14.06313100    -2.85538000     9.50698000
C    -11.80731900    -2.74583800     8.52105500
C    -14.17256700    -1.45497000     9.34471100
C    -13.09205100    -0.68733000     8.94224200
C    -11.90285700    -1.31222300     8.50419500
C    -10.80644500    -0.54421800     7.99622500
C    -10.78737300    -3.34877500     7.71292800
C     -9.69132500    -2.55666400     7.21717300
C     -9.71245600    -1.13905900     7.43314200
C    -10.90092500    -4.70557800     7.24229400
C     -9.94015200    -5.29831400     6.47296400
C     -8.63196600    -3.19452600     6.51032900
C     -8.73921500    -4.59147200     6.15065200
C     -7.69149500    -5.20320800     5.46849000
C     -7.42659500    -2.52415500     6.12094900
N     -6.57037300    -4.50346300     5.13734600
C     -6.42651900    -3.18239500     5.45591000
H     -7.71854400    -6.25147100     5.17145500
H     -7.27027500    -1.47493700     6.36560200
H     -5.82054500    -4.97908900     4.64486400
H     -5.49107300    -2.71051100     5.15672100
H    -14.44275600    -7.47653900    10.94795900
H    -10.15486400    -4.74868300     9.88375000
H    -12.26809000    -8.58556700    11.07979200
H    -10.16592200    -7.43075700    10.58587500
H    -15.85769100    -5.56899600    10.58983400
H    -16.13512300    -3.15239900    10.11030500
H    -15.12179900    -0.97316900     9.59649400
H    -13.16534800     0.40235900     8.90275300
H    -10.86209000     0.54520800     8.06906800
H     -8.88887600    -0.51834100     7.07804600
H    -11.80857100    -5.25657100     7.48552500
H    -10.07122900    -6.32212200     6.11668800
