038
BNPAH_000153_PAH48   C22_H14_N01_B01  -925.82023340     3.03900000    10.34970000  4802.10057781     7.65263439   208.23878840 20091.98881756    30.39304163     0.04843439     1.31796702   127.16448618    -4.14840000    -0.15245089   -95.66437737  -400.25975493    -2.93640000    -0.10791071   -67.71499318  -283.31953148     1.21200000     0.04454018    27.94938419   116.94022345
C      1.62790100     1.70655900    -0.36398800
C      0.42138700     2.32909300    -0.76576300
C     -0.77972600     1.65657700    -0.62361300
C     -0.86068600     0.33925500    -0.08621800
C      0.38582000    -0.34487200     0.19501800
C      0.40690600    -1.71992800     0.52864700
B     -0.82966400    -2.55392500     0.45263000
C     -2.14120600    -1.78999300     0.18466400
C     -3.41705700    -2.46452000     0.05136800
C     -3.51306300    -3.87650400    -0.01448700
C     -4.72388500    -4.53223200    -0.22117600
C     -5.92161700    -3.82033500    -0.35685200
C     -5.89494500    -2.42407500    -0.27359900
C     -7.07713100    -1.61795000    -0.34856600
C     -7.02102800    -0.27635600    -0.17362900
N     -5.80952900     0.38408500     0.06532700
C     -5.84121100     1.73138500     0.32945800
C     -4.67698800     2.39543000     0.64805400
C     -3.45266400     1.72360500     0.61059100
C     -3.36510500     0.36949600     0.21425500
C     -2.11976200    -0.36154300     0.08105900
C     -4.61391500    -0.32948100     0.05299900
C     -4.64891600    -1.74005600    -0.07691100
C      1.60198700     0.40461500     0.08667500
H      2.57661300     2.24281900    -0.45212500
H      0.43796300     3.32698800    -1.21132900
H     -2.54670000     2.24804800     0.90874800
H      1.39649100    -2.12958400     0.76775500
H     -0.80473300    -3.75343100     0.62231000
H     -2.59250600    -4.45006000     0.08724500
H     -4.73648700    -5.62349800    -0.27722300
H     -6.87103100    -4.33748700    -0.51173600
H     -8.04784000    -2.08529200    -0.52392200
H     -7.89521400     0.37288600    -0.18897900
H     -6.82586700     2.19517200     0.30561400
H     -4.72876400     3.44791100     0.93011200
H     -1.68652300     2.13806700    -0.99605500
H      2.53392400    -0.10677900     0.34364200
