038
BNPAH_000314_PAH49   C22_H14_N01_B01  -925.86335041     0.00000000     4.57583000  4829.15691409     7.69575140   209.41206217 20205.19252855    30.56428427     0.04870729     1.32539280   127.88096539    -5.22090000    -0.19186454  -120.39681512  -503.74027445    -2.57330000    -0.09456703   -59.34170820  -248.28570711     2.64760000     0.09729751    61.05510692   255.45456734
C     -7.29465200    -1.65941000    -0.00000000
C     -6.08820900    -2.32905300    -0.00000000
C     -4.85493200    -1.61652900     0.00000000
C     -4.87072000    -0.18507500     0.00000000
C     -6.12985700     0.47195500    -0.00000000
C     -7.31326800    -0.24450900    -0.00000000
C     -3.60591000     0.51187500     0.00000000
C     -2.39098700    -0.22540500     0.00000000
C     -2.39148300    -1.66228600     0.00000000
C     -3.61931300    -2.31257100     0.00000000
C     -1.12543000    -2.39750000     0.00000000
C     -1.10399500    -3.80935400     0.00000000
C      0.04148200    -4.58977400     0.00000000
B      1.38383100    -3.89932400    -0.00000000
C      1.27235200    -2.40238200    -0.00000000
N      0.08515300    -1.71285100     0.00000000
C      0.09819200    -0.26652500     0.00000000
C     -1.13104300     0.45339100     0.00000000
C     -1.09920000     1.88618000     0.00000000
C     -2.33708000     2.59897200     0.00000000
C     -3.53566200     1.94048700     0.00000000
C      0.13613200     2.56798900    -0.00000000
C      1.31661300     1.84835500    -0.00000000
C      1.30037900     0.44442900    -0.00000000
H     -8.23423300    -2.21677600    -0.00000000
H     -6.06081500    -3.42180600    -0.00000000
H     -6.17591800     1.56157000    -0.00000000
H     -8.26822700     0.28613900    -0.00000000
H     -3.67292800    -3.40047600     0.00000000
H     -2.07913400    -4.29735800     0.00000100
H     -0.11050000    -5.67517600     0.00000000
H      2.46283400    -4.44039900    -0.00000100
H      2.14532500    -1.75785100    -0.00000000
H     -2.30755200     3.69115800     0.00000000
H     -4.45785100     2.52159400     0.00000000
H      0.14336800     3.66028900    -0.00000000
H      2.27983800     2.36273600    -0.00000000
H      2.26009900    -0.06355900    -0.00000000
