042
BNPAH_000005_PAH41   C24_H16_N01_B01 -1003.19623772     0.00000000    10.72597000  5267.40807012     8.39414907   228.41643084 22038.83536538    30.62446552     0.04880319     1.32800250   128.13276374    -4.67490000    -0.17179941  -107.80575590  -451.05928269    -3.28440000    -0.12069947   -75.74006389  -316.89642732     1.39050000     0.05109993    32.06569201   134.16285537
B      2.88120100     0.35250300     0.00000300
C      2.75668200    -1.15817400     0.00000200
C      1.50141600    -1.77047300     0.00000100
C      1.36469800    -3.20041700    -0.00000000
C      0.16388000    -3.82858200    -0.00000100
N     -1.03374900    -3.10479600    -0.00000200
C     -2.20596000    -3.79442300    -0.00000200
C     -3.44926600    -3.17508200    -0.00000200
C     -4.66539400    -3.91126800    -0.00000200
C     -5.89950500    -3.27896500    -0.00000100
C     -5.92585300    -1.81962100    -0.00000200
C     -7.20011700    -1.14321200    -0.00000100
C     -8.36954000    -1.83698600     0.00000000
C     -8.39640300    -3.28219800     0.00000100
C     -9.62649600    -3.97624500     0.00000200
C     -9.66608900    -5.36460400     0.00000300
C     -8.46293900    -6.08990100     0.00000200
C     -7.24178900    -5.42358200     0.00000000
C     -7.17154300    -4.01357900    -0.00000000
C     -4.74094800    -1.09185800    -0.00000200
C     -3.47335000    -1.72817800    -0.00000300
C     -2.25438900    -1.04343900    -0.00000200
C     -0.99787300    -1.68217100    -0.00000200
C      0.26410600    -1.00907100    -0.00000000
C      0.34114800     0.41713000     0.00000000
C      1.54225900     1.09983700     0.00000200
H      3.94811300     0.92684500     0.00000400
H      3.61437800    -1.84351100     0.00000300
H      2.26704700    -3.81623900     0.00000000
H      0.04176200    -4.91111600    -0.00000200
H     -2.10403400    -4.88040500    -0.00000200
H     -4.60098800    -5.00065900    -0.00000200
H     -7.20248800    -0.05060000    -0.00000200
H     -9.32507900    -1.30622100     0.00000100
H    -10.55477100    -3.39893300     0.00000300
H    -10.62453100    -5.88856700     0.00000400
H     -8.48257800    -7.18216800     0.00000200
H     -6.32524100    -6.01574200    -0.00000000
H     -4.78533000     0.00004400    -0.00000300
H     -2.26747200     0.04471100    -0.00000200
H     -0.59488400     0.98508900    -0.00000000
H      1.46961300     2.19481600     0.00000300
