036
BNPAH_000182_PAH13   C20_H14_N01_B01  -849.65972499     4.75100000     6.07089000  4472.87052631     7.12797290   193.96202224 18714.49028208    30.63609950     0.04882173     1.32850700   128.18144031    -4.89630000    -0.17993571  -112.91136123  -472.42113539    -2.68060000    -0.09851023   -61.81610500  -258.63858332     2.21570000     0.08142547    51.09525623   213.78255207
C      0.02929100    -0.72740000     0.77880100
C      0.02175700     0.73467300     0.76880300
C      0.02032600     2.98102500    -0.31026500
C     -0.02021400    -2.97543400    -0.29960000
C      0.18813900    -0.65187400     3.26114100
C     -0.17152200     0.66214700     3.26775400
C      0.26845700    -1.37773300     2.02183900
C     -0.25673400     1.38284300     2.03164200
C      0.18982900     3.85694300    -1.37612700
C     -0.30065900    -3.80386200    -1.41947300
C      0.33822800     1.55989600    -0.35377800
C     -0.27944900    -1.56477800    -0.37024800
C      0.44377200    -3.54629400     0.92335100
N     -0.46299300     3.46025700     0.90668800
C      0.52322700    -2.78300600     2.05749800
C     -0.52805300     2.75056100     2.03629300
B      0.84179200     3.36527600    -2.64558800
C     -0.89543900    -3.28855500    -2.55400100
C      1.02954100     1.08985800    -1.51854800
C     -0.94638200    -1.08416700    -1.53157500
C      1.29781100     1.89395200    -2.60371500
C     -1.25012500    -1.92096400    -2.59001800
H     -0.06508800    -4.86914200    -1.35016800
H     -0.11602600     4.89788900    -1.20021400
H      0.33829400    -1.19891600     4.19459300
H     -0.34523800     1.19804300     4.20434700
H      0.66215600    -4.61681000     0.95590500
H     -0.69019000     4.45213800     0.93296300
H      0.77825800    -3.23848700     3.01770800
H     -0.79408000     3.28846200     2.94789400
H      1.03685600     4.08100100    -3.60240900
H     -1.11892400    -3.93626200    -3.40483900
H      1.37502900     0.05358500    -1.49908400
H     -1.23909300    -0.03657000    -1.58460700
H      1.87025300     1.42836700    -3.41572800
H     -1.77280800    -1.51666100    -3.45993200
