042
BNPAH_000061_PAH74   C24_H16_N01_B01 -1003.25997324     0.00000000     1.87734000  5307.40271642     8.45788460   230.15076284 22206.17296550    30.85699254     0.04917375     1.33808583   129.10565679    -4.78730000    -0.17593003  -110.39776150  -461.90423411    -2.66100000    -0.09778995   -61.36411826  -256.74747080     2.12630000     0.07814008    49.03364324   205.15676331
C      8.22767900    -2.81005600    -0.00000300
C      7.14370700    -3.65127100    -0.00000200
B      5.72756300    -3.07309500    -0.00000000
C      4.41161000    -3.79758500     0.00000100
C      3.20072200    -3.09238700     0.00000200
C      1.92018500    -3.71471700     0.00000200
C      0.73529800    -2.99114400     0.00000200
C      0.75880900    -1.53447700     0.00000200
C      1.99596600    -0.90718400     0.00000300
C      3.22155300    -1.63341000     0.00000200
C      4.43549400    -0.94567000     0.00000100
N      5.64089400    -1.57506300     0.00000000
C      6.80273700    -0.81438700    -0.00000100
C      8.04184800    -1.38821000    -0.00000200
C     -0.51134200    -0.80070700     0.00000200
C     -1.73688900    -1.50840700     0.00000100
C     -1.70802800    -2.95270100     0.00000100
C     -0.54124300    -3.65443100     0.00000200
C     -2.99188600    -0.78480900     0.00000000
C     -4.25972200    -1.42959600    -0.00000200
C     -5.43865300    -0.70541200    -0.00000300
C     -5.41407000     0.70782500    -0.00000300
C     -4.20086900     1.36844400    -0.00000100
C     -2.97650800     0.64884100     0.00000000
C     -1.72183200     1.32476700     0.00000100
C     -0.54109000     0.62667700     0.00000200
H      9.25474200    -3.19009300    -0.00000400
H      7.32151100    -4.73207100    -0.00000200
H      4.35064300    -4.89150500     0.00000000
H      1.87459300    -4.80722100     0.00000100
H      2.06230900     0.18218100     0.00000300
H      4.45402000     0.14782200     0.00000200
H      6.66438800     0.26948700    -0.00000000
H      8.90974700    -0.72508600    -0.00000300
H     -2.64929400    -3.50231300     0.00000100
H     -0.55620300    -4.74724100     0.00000100
H     -4.31668400    -2.51842500    -0.00000200
H     -6.39618700    -1.23180700    -0.00000400
H     -6.35023800     1.27107800    -0.00000400
H     -4.16431500     2.46114600    -0.00000100
H     -1.71344900     2.41781200     0.00000200
H      0.39589400     1.18439100     0.00000300
