042
BNPAH_000266_PAH71   C24_H16_N01_B01 -1003.20328985     0.00000000    14.59605000  5271.83334978     8.40120121   228.60832913 22057.35073548    30.65019389     0.04884419     1.32911819   128.24041124    -3.91720000    -0.14395445   -90.33277867  -377.95234597    -3.42150000    -0.12573781   -78.90166502  -330.12456646     0.49570000     0.01821664    11.43111365    47.82777951
C      8.82104500    -1.86355500     0.00000300
C      7.59850700    -2.54630700     0.00000200
C      6.37386900    -1.85801600     0.00000000
C      5.10496500    -2.49987100    -0.00000100
C      3.95712100    -1.74355200    -0.00000200
C      3.94881900    -0.31233600    -0.00000200
C      2.71523500     0.44905100    -0.00000200
C      1.45555200    -0.17178700    -0.00000200
C      0.23128400     0.53724200    -0.00000200
C      0.17470600     1.97455300    -0.00000200
B      1.50169400     2.73247500    -0.00000300
C      2.78028100     1.90359400    -0.00000300
C      4.05486000     2.51424500    -0.00000300
C      5.24268800     1.80302300    -0.00000200
C      5.20984300     0.37889500    -0.00000100
C      6.39022500    -0.41807000     0.00000000
N      7.63014300     0.18019100     0.00000200
C      8.80539000    -0.47549300     0.00000300
C     -1.13644400     2.60218200    -0.00000000
C     -2.33059600     1.80808700     0.00000100
C     -3.59951200     2.43558800     0.00000300
C     -3.71316500     3.81727900     0.00000300
C     -2.54547300     4.60868200     0.00000200
C     -1.29280600     4.01417600    -0.00000000
C     -2.21309200     0.37662300     0.00000000
C     -0.99071300    -0.22890900    -0.00000100
H      9.77317300    -2.39348900     0.00000400
H      7.58661300    -3.63898600     0.00000200
H      5.06048400    -3.59054300    -0.00000100
H      2.99915000    -2.26289200    -0.00000300
H      1.37984100    -1.26116300    -0.00000200
H      1.58996400     3.94178900    -0.00000300
H      4.09350900     3.60777900    -0.00000300
H      6.18919200     2.35451900    -0.00000200
H      7.63680700     1.19919800     0.00000200
H      9.70590100     0.13913900     0.00000400
H     -4.49536900     1.80739000     0.00000400
H     -4.69861100     4.29017700     0.00000500
H     -2.62829900     5.69891000     0.00000200
H     -0.39495600     4.63311600    -0.00000100
H     -3.12906900    -0.22182300     0.00000100
H     -0.91973400    -1.32112300    -0.00000100
