042
BNPAH_000060_PAH69   C24_H16_N01_B01 -1003.19312045     0.00000000    14.85046000  5265.45195277     8.39103180   228.33160556 22030.65097039    30.61309275     0.04878507     1.32750933   128.08518007    -4.46870000    -0.16422170  -103.05067090  -431.16400705    -3.34780000    -0.12302938   -77.20210263  -323.01359742     1.12090000     0.04119232    25.84856827   108.15040963
C     -2.59267600    -0.50741800     0.00000100
C     -2.71064600     0.86688600     0.00000100
B     -1.42960400     1.70997000     0.00000000
C     -1.29009100     3.23020900     0.00000100
C     -0.03027200     3.83537900     0.00000000
C      0.08133600     5.26977700     0.00000000
C      1.27957500     5.92721700     0.00000000
C      2.50567500     5.18893300    -0.00000100
C      3.73819500     5.84931100    -0.00000100
C      4.94091300     5.13709600    -0.00000100
N      6.14651700     5.80133500    -0.00000000
C      7.34996700     5.21014100    -0.00000000
C      7.44397300     3.80271400     0.00000000
C      8.71493800     3.16215000     0.00000100
C      8.80335800     1.78444000     0.00000100
C      7.62213100     1.00792400     0.00000100
C      6.37312700     1.61270900    -0.00000000
C      6.23798400     3.01970900    -0.00000000
C      4.94895900     3.69905300    -0.00000100
C      3.71170900     3.05448400    -0.00000100
C      2.46764600     3.73119700    -0.00000100
C      1.19889800     3.04780000    -0.00000100
C      1.11497400     1.62999700    -0.00000100
C     -0.09215200     0.92810600    -0.00000000
C     -0.12306000    -0.50672600    -0.00000100
C     -1.32198200    -1.18296800    -0.00000000
H     -3.48625700    -1.14517300     0.00000100
H     -3.72466800     1.28722700     0.00000200
H     -2.14635900     3.91859200     0.00000100
H     -0.85058900     5.84277100     0.00000100
H      1.32328200     7.01929200     0.00000000
H      3.75775500     6.94342800    -0.00000000
H      6.10784000     6.81882900    -0.00000000
H      8.22336500     5.86175000     0.00000000
H      9.61768800     3.77822200     0.00000100
H      9.77956800     1.29528200     0.00000100
H      7.69176700    -0.08203200     0.00000100
H      5.48076400     0.98613500    -0.00000000
H      3.70295900     1.96665700    -0.00000100
H      2.04740700     1.05253800    -0.00000100
H      0.81660300    -1.07538000    -0.00000100
H     -1.32092000    -2.27755600    -0.00000100
