042
BNPAH_000197_PAH52   C24_H16_N01_B01 -1003.17761837     0.00500000     7.39509000  5255.72425034     8.37552972   227.90977246 21989.95026342    30.55653634     0.04869494     1.32505682   127.84854805    -4.44690000    -0.16342056  -102.54795095  -429.06062680    -2.77590000    -0.10201244   -64.01377523  -267.83363555     1.67100000     0.06140812    38.53417573   161.22699125
C     -2.58862700    -0.46392000     0.00039500
C     -2.66246900     0.95830600     0.00094400
C     -1.51298500     1.71741900     0.00095600
C     -0.22607400     1.09510300     0.00040900
C      0.96030900     1.86187200     0.00039800
C      2.26483300     1.32503800    -0.00015100
C      2.30419000    -0.13379300    -0.00051700
B      3.63118400    -0.89349800    -0.00076400
C      4.85482000    -0.05238400    -0.00052100
C      4.78417000     1.34181500    -0.00023400
C      3.54266800     2.10915800    -0.00023500
C      3.64106500     3.56047500    -0.00037000
C      2.53804800     4.48067600    -0.00095500
C      2.66491600     5.85298000    -0.00101600
C      3.93263100     6.46514900    -0.00051900
C      5.03255100     5.64265300    -0.00006700
C      4.92842400     4.22041500    -0.00004400
C      6.13368300     3.45497400     0.00024200
C      7.42222700     4.05666100     0.00059400
C      8.58564100     3.32724300     0.00078900
C      8.47533200     1.92240100     0.00062100
C      7.23305000     1.35187200     0.00027600
N      6.05192600     2.07168200     0.00008000
C      1.13186000    -0.89380800    -0.00055000
C     -0.15823300    -0.33450400    -0.00012400
C     -1.36379400    -1.09549300    -0.00012200
H     -3.51078100    -1.05045100     0.00039800
H     -3.64046400     1.44617600     0.00135900
H     -1.57280000     2.80983100     0.00137700
H      1.52500100     4.12659400    -0.00147700
H      3.66264600    -2.10398700    -0.00103400
H      5.81354000    -0.56192000    -0.00059700
H      0.75050200     2.91791300     0.00095900
H      1.75831500     6.46312800    -0.00147900
H      4.04310900     7.55089100    -0.00055600
H      6.01447800     6.11043000     0.00023200
H      7.48239200     5.14030500     0.00070800
H      9.55737700     3.82350000     0.00106100
H      9.34979700     1.27111100     0.00076200
H      7.13180400     0.27764000     0.00016300
H      1.23562800    -1.98283600    -0.00086900
H     -1.29806100    -2.18684600    -0.00052400
