042
BNPAH_000335_PAH63   C24_H16_N01_B01 -1003.17710340     0.00400000     9.16129000  5255.40109907     8.37501475   227.89575930 21988.59819851    30.55465755     0.04869195     1.32497534   127.84068719    -4.41240000    -0.16215271  -101.75236205  -425.73188281    -2.82800000    -0.10392708   -65.21522978  -272.86052139     1.58440000     0.05822563    36.53713227   152.87136142
C      2.65481700    -0.04030800    -0.00042400
C      2.49269800    -1.40857700     0.00006700
C      1.20763400    -2.01035400     0.00016000
C      1.17168200    -3.43074900     0.00046400
C     -0.02167900    -4.07352700     0.00041300
C     -1.26613300    -3.36685500     0.00019200
C     -2.46520100    -4.16994300     0.00008900
C     -2.42793400    -5.58992400     0.00011700
C     -3.56981700    -6.35400200    -0.00001900
N     -4.76793800    -5.70559700    -0.00017400
C     -4.87144400    -4.37045000    -0.00020900
C     -3.74936800    -3.51962300    -0.00009900
C     -3.90707100    -2.09397800    -0.00004200
B     -5.32678300    -1.39127800    -0.00012300
C     -6.77481200    -1.94470300    -0.00059800
C     -7.85629400    -1.07705900    -0.00050200
C     -7.73558000     0.34059400     0.00002500
C     -6.49115200     0.93308600     0.00046500
C     -5.30398500     0.14651600     0.00040100
C     -4.05270900     0.78557700     0.00087000
C     -2.84444800     0.11061800     0.00078300
C     -2.68207700    -1.30216100     0.00024000
C     -1.33203100    -1.93416400     0.00010000
C     -0.01344500    -1.23352000    -0.00013000
C      0.23079800     0.17623300    -0.00077900
C      1.49383000     0.74859400    -0.00089600
H      3.64816900     0.41371100    -0.00051700
H      3.36096400    -2.07254600     0.00035100
H      2.11188800    -3.98665500     0.00064900
H     -0.01678100    -5.16061000     0.00056200
H     -1.48532700    -6.13039900     0.00024000
H     -3.58796000    -7.44214800    -0.00000400
H     -5.62662500    -6.25154000    -0.00025900
H     -7.11549800    -2.98915300    -0.00106000
H     -5.87693100    -3.97034900    -0.00029800
H     -8.87334900    -1.48973700    -0.00085200
H     -8.64184800     0.95305600     0.00006900
H     -6.40930800     2.02774700     0.00086400
H     -4.00791700     1.88347600     0.00131900
H     -0.56887000     0.89598700    -0.00131800
H     -1.98936000     0.75619400     0.00125700
H      1.56988600     1.83850400    -0.00139300
