042
BNPAH_000574_PAH72   C24_H16_N01_B01 -1003.19873331     0.00000000    11.39783000  5268.97407432     8.39664466   228.48433921 22045.38752695    30.63357020     0.04881770     1.32839732   128.17085772    -4.23210000    -0.15552681   -97.59454524  -408.33557729    -2.78600000    -0.10238361   -64.24668676  -268.80813741     1.44610000     0.05314320    33.34785848   139.52743988
C      2.76651600     0.24186300    -0.00000200
C      2.79399600    -1.17729200    -0.00000100
C      1.59703800    -1.85809200    -0.00000000
C      0.34805600    -1.18153200     0.00000000
C     -0.89464700    -1.83494800     0.00000100
C     -2.12268000    -1.17039200     0.00000100
C     -2.07408300     0.28806600     0.00000100
C     -3.27398400     1.04040500     0.00000100
C     -4.49337700     0.37685900     0.00000200
C     -4.62397800    -1.03057600     0.00000200
C     -3.41671300    -1.83628700     0.00000200
C     -3.52605700    -3.22961900     0.00000200
C     -4.76385900    -3.92769500     0.00000200
C     -4.72689600    -5.36655100     0.00000200
C     -5.87457700    -6.10770200     0.00000100
C     -7.16091800    -5.47512000    -0.00000000
C     -8.35241100    -6.24238700    -0.00000100
C     -9.59425600    -5.62982500    -0.00000200
C     -9.67521600    -4.22002300    -0.00000200
C     -8.52393000    -3.44986100    -0.00000100
C     -7.23121800    -4.04144200     0.00000000
C     -6.02118800    -3.24076700     0.00000100
B     -5.99053900    -1.70558000     0.00000100
C     -0.82248500     0.91065400    -0.00000000
N      0.35795200     0.22353700    -0.00000100
C      1.57040200     0.90452900    -0.00000200
H      3.68759500     0.82606600    -0.00000300
H      3.74384200    -1.71330200    -0.00000200
H      1.56634200    -2.94866500     0.00000000
H     -0.85912900    -2.92404000     0.00000100
H     -3.22209200     2.13163100     0.00000100
H     -5.41353300     0.96910200     0.00000200
H     -2.62448600    -3.84787300     0.00000200
H     -3.75237300    -5.86458400     0.00000200
H     -5.82955100    -7.20072400     0.00000100
H     -8.27373000    -7.33353000    -0.00000100
H    -10.50633800    -6.23206100    -0.00000300
H    -10.65384100    -3.73279800    -0.00000300
H     -8.59474500    -2.36179300    -0.00000100
H     -6.98528900    -1.01485600     0.00000100
H     -0.72650400     1.99664500    -0.00000100
H      1.48445400     1.99054200    -0.00000200
