018
BNPAH_000584_PAH01   C04_H08_N03_B03  -395.92550047     0.00000000     6.68346000  1952.10927133     3.11088414    84.65146927  8167.62519124    28.70748928     0.04574830     1.24487455   120.11213515    -5.38290000    -0.19781793  -124.13262389  -519.37089837    -2.08970000    -0.07679506   -48.18962718  -201.62540012     3.29320000     0.12102287    75.94299671   317.74549825
B      0.00000000     1.30956000     1.49893200
N      0.00000000     2.47842000     0.70580800
C     -0.00000000     2.42053200    -0.67870700
C     -0.00000000     1.22709800    -1.31832600
B      0.00000000    -1.26134100    -1.49446100
C      0.00000000    -2.55948500    -0.78533900
B     -0.00000000    -2.54388100     0.70748300
N     -0.00000000    -1.21191500     1.33091200
C      0.00000000    -0.01810900     0.70879300
N      0.00000000    -0.00495000    -0.66254300
H      0.00000000     1.36730600     2.69877900
H     -0.00000000     3.40638900     1.11889500
H     -0.00000000     3.35857000    -1.23311300
H     -0.00000000     1.16264300    -2.40425100
H      0.00000000    -1.03432900    -2.68217100
H     -0.00000000    -3.50101700    -1.34563200
H     -0.00000000    -3.46496800     1.49007700
H     -0.00000000    -1.13052200     2.34486400
