038
BNPAH_000094_PAH29   C22_H14_N01_B01  -925.87776766     0.00000000     4.70225000  4838.20387811     7.71016866   209.80437566 20243.04502601    30.62154353     0.04879854     1.32787580   128.12053813    -4.59690000    -0.16893296  -106.00703316  -443.53342673    -2.47440000    -0.09093252   -57.06102000  -238.74330768     2.12250000     0.07800044    48.94601316   204.79011904
C      7.55053200     1.91558000    -0.00000100
N      7.41639100     0.54140000    -0.00000100
C      6.23456600    -0.12611600    -0.00000000
C      5.01740900     0.54188300     0.00000000
B      5.05889900     2.08782600     0.00000000
C      6.45225000     2.72808000    -0.00000000
C      3.71296800     2.78787000     0.00000100
C      2.53886800     2.04165500     0.00000100
C      1.25782700     2.70626300     0.00000100
C      0.07795900     2.02855800     0.00000100
C      0.03307500     0.58951400     0.00000000
C      1.26907400    -0.11933200     0.00000100
C      1.24680400    -1.56229700     0.00000100
C      2.48957000    -2.27017800     0.00000100
C      3.67904200    -1.59806000     0.00000100
C      3.74763900    -0.16579900     0.00000100
C      2.53454000     0.57670700     0.00000100
C      0.02812000    -2.24578700     0.00000000
C     -1.20370300    -1.56615100     0.00000000
C     -2.44225200    -2.27845000    -0.00000000
C     -3.64536500    -1.61120600    -0.00000100
C     -3.66244100    -0.19114400    -0.00000100
C     -2.48374100     0.52544900    -0.00000000
C     -1.21368700    -0.12459800     0.00000000
H      8.58883200     2.25815200    -0.00000100
H      8.26661700    -0.01287300    -0.00000100
H      6.34835200    -1.21336800    -0.00000000
H      6.64263000     3.80618900    -0.00000100
H      3.59183300     3.87832700     0.00000100
H      1.25991400     3.79948400     0.00000100
H     -0.85462200     2.59338500     0.00000100
H      2.46913400    -3.36314600     0.00000100
H      4.60415800    -2.17783200     0.00000100
H      0.03213100    -3.33945300     0.00000000
H     -2.41226100    -3.37136200    -0.00000000
H     -4.58614300    -2.16695300    -0.00000100
H     -4.61820100     0.33852400    -0.00000100
H     -2.53369700     1.61464800    -0.00000000
