042
BNPAH_000042_PAH52   C24_H16_N01_B01 -1003.15039189     0.00100000    17.48056000  5238.63937333     8.34830324   227.16890208 21918.46713801    30.45720566     0.04853665     1.32074943   127.43294848    -3.91770000    -0.14397282   -90.34430895  -378.00058863    -3.37280000    -0.12394811   -77.77861634  -325.42573075     0.54490000     0.02002471    12.56569261    52.57485789
C     -2.57611800    -0.62383300     0.00009200
B     -2.79170100     0.90871600     0.00028500
C     -1.53422500     1.73912200     0.00030000
C     -0.26319400     1.12969200     0.00014000
C      0.93381000     1.89909800     0.00014400
C      2.24713200     1.39072300    -0.00002500
C      2.31512700    -0.07831700    -0.00014400
C      3.55695700    -0.73533000    -0.00021500
C      4.73874000    -0.04072500    -0.00015700
C      4.74760200     1.38375400    -0.00006700
C      3.51605700     2.13769900    -0.00006100
C      3.67620600     3.59566400    -0.00010800
C      2.58683100     4.51687100    -0.00029700
C      2.72377200     5.89073600    -0.00031700
C      4.00166200     6.46489100    -0.00015800
C      5.10162100     5.62947900    -0.00001600
C      4.97060400     4.22074000    -0.00000700
N      6.14189800     3.42324400     0.00007900
C      7.39588900     4.01235200     0.00018700
C      8.55899200     3.29902800     0.00023700
C      8.49314300     1.88821000     0.00017700
C      7.25318100     1.29726300     0.00007300
C      6.03466300     2.03460900     0.00002200
C      1.14450100    -0.85964200    -0.00016000
C     -0.13976200    -0.32575500    -0.00003500
C     -1.30599300    -1.15605700    -0.00005100
H     -3.40739000    -1.34145800     0.00006500
H     -3.90469000     1.39320800     0.00041500
H     -1.53315900     2.83825100     0.00042800
H      1.57967500     4.14086500    -0.00046200
H      3.57010600    -1.82825500    -0.00029300
H      5.66404800    -0.60866300    -0.00019000
H      0.71460000     2.95590400     0.00032700
H      1.82956500     6.51694200    -0.00046400
H      4.14012400     7.54751300    -0.00016800
H      6.07678600     6.10697500     0.00007500
H      7.41833000     5.09344500     0.00022900
H      9.50732100     3.83695000     0.00032100
H      9.39883500     1.28015400     0.00021400
H      7.19315300     0.21457000     0.00003300
H      1.26554200    -1.94776700    -0.00026300
H     -1.13641100    -2.24089400    -0.00018300
