036
BNPAH_000098_PAH10   C20_H14_N01_B01  -849.66139300     0.00000000     5.84880000  4473.91721612     7.12964091   194.00741100 18718.86963225    30.64326860     0.04883316     1.32881788   128.21143582    -4.57030000    -0.16795543  -105.39362258  -440.96691687    -3.20360000    -0.11773013   -73.87677161  -309.10041242     1.36670000     0.05022530    31.51685097   131.86650445
C      1.90041000    -1.06969800    -0.00000200
C      0.76724000    -1.84231400    -0.00000100
C     -0.55218500    -1.26291100     0.00000000
C     -1.70220500    -2.05643400     0.00000100
B     -3.08698100    -1.40678100     0.00000200
C     -4.41325300    -2.11105700     0.00000200
C     -5.61660600    -1.36183000     0.00000200
C     -6.88283100    -1.95961200     0.00000100
C     -8.09186000    -1.22503200     0.00000000
C     -8.01214800     0.20526200     0.00000000
C     -9.19494800     0.98231500    -0.00000100
C    -10.42831700     0.35363700    -0.00000200
C    -10.52762000    -1.05985400    -0.00000200
C     -9.38008500    -1.82917700    -0.00000100
N     -6.77917200     0.78073000     0.00000200
C     -5.56370500     0.11162500     0.00000200
C     -4.37788100     0.82410000     0.00000200
C     -3.12292700     0.15599700     0.00000200
C     -1.90895300     0.85611600     0.00000100
C     -0.65934200     0.19888600     0.00000000
C      0.55257300     0.95952100    -0.00000100
C      1.78815200     0.35428100    -0.00000200
H      2.88944400    -1.53438500    -0.00000300
H      0.84126300    -2.93354600    -0.00000100
H     -1.54456800    -3.14307000     0.00000100
H     -4.53878300    -3.20102300     0.00000200
H     -6.93749300    -3.05215200     0.00000100
H     -9.12465800     2.07316300    -0.00000000
H    -11.33760800     0.95915100    -0.00000300
H    -11.51067800    -1.53442900    -0.00000300
H     -9.44142600    -2.92016600    -0.00000100
H     -6.73524900     1.79696500     0.00000200
H     -4.42620000     1.92176900     0.00000200
H     -1.89817600     1.95410900     0.00000100
H      0.47735100     2.05068000    -0.00000100
H      2.69480400     0.96516300    -0.00000300
