038
BNPAH_000090_PAH36   C22_H14_N01_B01  -925.90482229     0.00000000     2.90975000  4855.18091798     7.73722329   210.54056978 20314.07696083    30.72899315     0.04896977     1.33253525   128.57010734    -5.21360000    -0.19159627  -120.22847312  -503.03593152    -2.15500000    -0.07919479   -49.69548097  -207.92589236     3.05860000     0.11240148    70.53299215   295.11003915
C      6.69222000     1.30762100    -0.00000000
C      5.43260100     1.88720100    -0.00000000
C      4.28732400     1.05747300     0.00000000
C      4.39861100    -0.35845200     0.00000000
C      5.70932500    -0.90168900     0.00000000
C      6.83900200    -0.09596800    -0.00000000
B      3.11177600    -1.19090500     0.00000000
C      1.78099200    -0.42736200     0.00000000
C      0.46797100    -1.06904400     0.00000000
C      0.33405500    -2.47017200     0.00000000
C     -0.92105600    -3.08550200     0.00000000
C     -2.08569500    -2.32231500    -0.00000000
C     -2.00934600    -0.91636300    -0.00000000
C     -3.19275200    -0.10160000    -0.00000000
C     -3.11603000     1.26088800    -0.00000000
C     -1.84539900     1.93189900    -0.00000000
C     -1.75858800     3.33754600    -0.00000000
C     -0.51922600     3.96990600     0.00000000
C      0.65659200     3.21411200     0.00000000
C      0.62528300     1.80736200     0.00000000
C      1.82906800     0.97796900     0.00000000
N      3.03548700     1.63386600     0.00000000
C     -0.64390700     1.14937700     0.00000000
C     -0.72544100    -0.28142200     0.00000000
H      7.57792700     1.94810800    -0.00000100
H      5.32242600     2.97588200    -0.00000000
H      5.81565800    -1.98990100     0.00000000
H      7.83802700    -0.53766200    -0.00000000
H      3.18488900    -2.39541100     0.00000000
H      1.23517900    -3.08297800     0.00000000
H     -0.98438300    -4.17648200     0.00000000
H     -3.06709300    -2.80338300    -0.00000000
H     -4.16524900    -0.60092200    -0.00000000
H     -4.02375500     1.86968800    -0.00000000
H     -2.67893500     3.92701200    -0.00000000
H     -0.45917600     5.06056900     0.00000000
H      1.60261600     3.76173900     0.00000000
H      3.00962100     2.64679500     0.00000000
