038
BNPAH_000153_PAH65   C22_H14_N01_B01  -925.85657563     0.00000000     8.78001000  4824.90567417     7.68897662   209.22771097 20187.40534073    30.53737768     0.04866441     1.32422602   127.76838821    -4.40210000    -0.16177419  -101.51483840  -424.73808388    -2.77480000    -0.10197202   -63.98840862  -267.72750168     1.62730000     0.05980217    37.52642978   157.01058220
C     -2.81791600     2.77646900    -0.00000000
C     -3.93908100     1.96502700    -0.00000000
C     -1.50615300     2.23389900     0.00000000
C     -3.77580400     0.56680700    -0.00000000
C     -2.51687200    -0.04182400     0.00000000
C     -1.34210800     0.80153600     0.00000000
B     -2.38424300    -1.58314500     0.00000000
C     -0.04670200     0.21309300     0.00000000
C     -0.96100700    -2.11519500     0.00000000
C      0.08699000    -1.22009000     0.00000000
C     -0.35293200     3.08584200     0.00000000
C      0.95600700     2.50284000     0.00000000
C      1.12853400     1.06111700     0.00000000
C     -0.45006400     4.51706200     0.00000000
C      0.67392900     5.28918100     0.00000000
N      1.90638800     4.71493900     0.00000000
C      2.10539800     3.34746000     0.00000000
C      3.43121300     2.82964100     0.00000000
C      2.44272300     0.56657000     0.00000000
C      3.57540500     1.39817800     0.00000000
C      4.60168400     3.64375300     0.00000000
C      4.90001800     0.85542000    -0.00000000
C      5.86110600     3.08451200    -0.00000000
C      6.00846600     1.66970400    -0.00000000
H      5.01299200    -0.23156500    -0.00000000
H      4.52568500     4.73574600     0.00000000
H      7.00973800     1.23235000    -0.00000000
H      6.74518700     3.72553400    -0.00000000
H     -2.95775400     3.85847400    -0.00000000
H     -4.93730900     2.40889300    -0.00000000
H     -4.66151300    -0.07546600    -0.00000000
H      2.61734400    -0.50843500    -0.00000000
H     -1.41629300     5.01575800     0.00000000
H      0.65091500     6.37936400    -0.00000000
H      2.72519300     5.31241600    -0.00000000
H     -3.37554600    -2.27885100     0.00000000
H     -0.70038700    -3.17957700     0.00000000
H      1.10713800    -1.61540600     0.00000000
