042
BNPAH_000033_PAH39   C24_H16_N01_B01 -1003.19598386     0.00100000    12.91496000  5267.24877156     8.39389522   228.40952300 22038.16886021    30.62353937     0.04880172     1.32796234   128.12888872    -4.46430000    -0.16406000  -102.94920449  -430.73947159    -2.83420000    -0.10415493   -65.35820518  -273.45873046     1.63010000     0.05990507    37.59099931   157.28074113
C      2.71797600     0.53938900     0.00000100
B      2.85762100    -0.98845300     0.00000100
C      1.55487100    -1.77203200     0.00000100
C      0.31393500    -1.12845100    -0.00000000
C      0.26174200     0.32581900     0.00000000
C     -0.98314300     0.96000500    -0.00000000
C     -2.20728500     0.28323400    -0.00000100
C     -2.21668600    -1.11828500    -0.00000100
N     -3.43354300    -1.86002200    -0.00000100
C     -4.64079500    -1.17468800    -0.00000100
C     -5.84689300    -1.79609200    -0.00000100
C     -5.95084500    -3.22202200    -0.00000100
C     -4.73829100    -3.94849200    -0.00000100
C     -4.79360800    -5.37915400    -0.00000100
C     -5.99226000    -6.04205500    -0.00000000
C     -7.23592800    -5.33990500     0.00000000
C     -8.47488100    -6.03045900     0.00000100
C     -9.67133600    -5.33734700     0.00000100
C     -9.66468700    -3.92453100     0.00000100
C     -8.46889200    -3.22725800     0.00000000
C     -7.22299500    -3.90859000    -0.00000000
C     -3.45921300    -3.25801200    -0.00000100
C     -2.23368200    -3.93057000    -0.00000100
C     -1.03169900    -3.23881800    -0.00000100
C     -0.96983900    -1.83944000    -0.00000100
C      1.46435200     1.10583000     0.00000100
H      3.57373100     1.22615200     0.00000200
H      3.93587500    -1.54378800     0.00000200
H      1.56040300    -2.86819900     0.00000000
H     -1.00413400     2.05409100    -0.00000000
H     -3.11427400     0.88198400    -0.00000100
H     -4.57051200    -0.09435200    -0.00000100
H     -6.73474200    -1.16607900    -0.00000100
H     -3.87351700    -5.96111500    -0.00000100
H     -6.00832400    -7.13459200    -0.00000000
H     -8.46711800    -7.12331000     0.00000100
H    -10.62060100    -5.87772800     0.00000200
H    -10.61021400    -3.37758800     0.00000100
H     -8.49597900    -2.13690000     0.00000000
H     -2.22407200    -5.01707500    -0.00000100
H     -0.10184200    -3.80684000    -0.00000100
H      1.32903500     2.19573900     0.00000100
