042
BNPAH_000494_PAH54   C24_H16_N01_B01 -1003.27347645     0.00100000     1.70752000  5315.87611032     8.47138781   230.51820397 22241.62564558    30.90625646     0.04925225     1.34022212   129.31177703    -5.26300000    -0.19341168  -121.36766419  -507.80230696    -2.29620000    -0.08438379   -52.95163035  -221.54962136     2.96680000     0.10902789    68.41603384   286.25268560
C      7.83206700     1.69825500    -0.00000100
C      7.77719000     0.27543700    -0.00000100
C      6.56369000    -0.37561000    -0.00000000
C      5.34238700     0.36399700    -0.00000000
C      4.07923300    -0.25779800     0.00000000
C      2.87484800     0.46015100     0.00000100
C      2.93391500     1.89136700     0.00000000
C      4.18562100     2.51422200     0.00000000
C      5.39737500     1.79834600    -0.00000000
C      6.67225100     2.44095700    -0.00000000
C      1.67929500     2.63997700     0.00000100
C      1.73353300     4.05338600     0.00000000
C      0.60197800     4.84905900     0.00000000
C     -0.64179200     4.21343700     0.00000000
C     -0.71822000     2.82733300     0.00000000
C      0.41030300     1.96342400     0.00000100
C      0.33578000     0.47337800     0.00000100
C      1.57089500    -0.20763500     0.00000100
N      1.63386400    -1.58811500     0.00000100
B      0.53896300    -2.47198100     0.00000100
C     -0.81874700    -1.78981000     0.00000000
C     -1.96834100    -2.61183400    -0.00000000
C     -3.25023800    -2.08725200    -0.00000100
C     -3.37065600    -0.69280100    -0.00000100
C     -2.25345400     0.13652000    -0.00000100
C     -0.91480300    -0.35239700     0.00000000
H      8.80328800     2.19874400    -0.00000100
H      8.70671000    -0.29874900    -0.00000100
H      6.52047000    -1.46818100    -0.00000000
H      4.10411900    -1.34952300    -0.00000000
H      4.25767400     3.60127000     0.00000000
H      6.71202300     3.53342200    -0.00000000
H      2.70482600     4.54522200     0.00000000
H      0.68613900     5.93787500     0.00000000
H     -1.56699900     4.79463600    -0.00000000
H     -2.49039600     1.18757300    -0.00000100
H      2.57276900    -1.96495700     0.00000100
H      0.73344800    -3.66013800     0.00000100
H     -1.81772700    -3.69488000     0.00000000
H     -4.13273600    -2.73100800    -0.00000100
H     -4.36005000    -0.22757400    -0.00000200
H     -1.71820600     2.43229400     0.00000000
