042
BNPAH_000298_PAH37   C24_H16_N01_B01 -1003.18240448     0.00000000    12.64310000  5258.72757668     8.38031583   228.04000902 22002.51618083    30.57399754     0.04872277     1.32581401   127.92160571    -4.11060000    -0.15106176   -94.79268866  -396.61260935    -2.97940000    -0.10949093   -68.70659675  -287.46840079     1.13120000     0.04157083    26.08609191   109.14420856
C      6.03808400     1.86127800    -0.00000100
C      6.03213900     0.43672300    -0.00000100
C      4.83799100    -0.25004700    -0.00000100
C      3.59527900     0.45096500     0.00000000
C      2.35064200    -0.20537500     0.00000000
C      1.13732800     0.48871600     0.00000000
C      1.12458400     1.93462600     0.00000100
C      2.37087900     2.57970200     0.00000100
C      3.59727500     1.89118100     0.00000000
C      4.85613500     2.56840400    -0.00000000
C     -0.11798100     2.70123900     0.00000100
B     -0.14929400     4.23096800     0.00000100
C     -1.51509300     4.87909000     0.00000100
C     -2.67212300     4.08751200    -0.00000000
C     -2.60864000     2.69546400    -0.00000100
C     -1.37221200     1.98964800    -0.00000000
C     -1.38878200     0.54646700    -0.00000000
C     -2.57338900    -0.21841600    -0.00000100
C     -2.60437700    -1.60951400    -0.00000100
C     -3.80538900    -2.38514000    -0.00000100
C     -3.77540000    -3.75492800    -0.00000000
C     -2.51436300    -4.42195500     0.00000100
C     -1.36387500    -3.68980900     0.00000100
N     -1.38648200    -2.30245300     0.00000000
C     -0.21121600    -1.59064200     0.00000100
C     -0.14729100    -0.21044100     0.00000000
H      6.99272800     2.39337700    -0.00000100
H      6.97987100    -0.10704200    -0.00000200
H      4.82720600    -1.34398500    -0.00000100
H      2.36980700    -1.29809300    -0.00000000
H      2.37890600     3.66945000     0.00000100
H      4.86179900     3.66128400     0.00000000
H      0.85438000     4.91050200     0.00000200
H     -1.66233500     5.96637900     0.00000100
H     -3.66754300     4.54927600    -0.00000100
H     -3.55067800     2.14473200    -0.00000200
H     -3.54176000     0.27760700    -0.00000200
H     -4.74852800    -1.83713800    -0.00000200
H     -4.70084900    -4.33283800    -0.00000000
H     -2.44917600    -5.51030700     0.00000200
H     -0.36807600    -4.13241700     0.00000200
H      0.68022700    -2.21405100     0.00000100
