036
BNPAH_000171_PAH16   C20_H14_N01_B01  -849.67642004     0.00000000     3.85306000  4483.34683181     7.14466796   194.41631784 18758.32314429    30.70785501     0.04893608     1.33161862   128.48166536    -4.94860000    -0.18185770  -114.11742789  -477.46731830    -2.22210000    -0.08166067   -51.24284374  -214.40005820     2.72650000     0.10019703    62.87458415   263.06726010
C      4.96535100     1.47626700    -0.00000000
C      4.90418500     0.10843300    -0.00000000
N      3.71124200    -0.60100200    -0.00000000
C      2.50200500     0.11131800    -0.00000000
C      2.57637800     1.52183300     0.00000000
C      3.76861800     2.22033900    -0.00000000
C      1.23791100    -0.61542700     0.00000000
C      1.22180000    -2.05297500     0.00000000
B      2.55151900    -2.82768800     0.00000000
C      3.77285900    -1.98564400     0.00000000
C     -0.02680200    -2.69383600     0.00000000
C     -1.24551200    -2.00002700     0.00000000
C     -2.50384100    -2.69718200    -0.00000000
C     -3.68535500    -2.01869500    -0.00000000
C     -3.72188700    -0.57799200    -0.00000000
C     -4.95849100     0.11081800    -0.00000000
C     -5.00793800     1.49626700    -0.00000000
C     -3.80822400     2.23224300     0.00000000
C     -2.58437200     1.57605800     0.00000000
C     -2.50058300     0.16406800     0.00000000
C     -1.22842000    -0.56214100     0.00000000
C      0.01305500     0.08484400     0.00000000
H      5.94386600     1.95890800    -0.00000000
H      5.79354500    -0.52016700    -0.00000000
H      1.64089300     2.07722100     0.00000000
H      3.77881700     3.31095600     0.00000000
H      2.60081400    -4.03407100     0.00000000
H      4.80654200    -2.33940700     0.00000000
H     -0.04833800    -3.78740300     0.00000000
H     -2.48821300    -3.79002100    -0.00000000
H     -4.63590900    -2.55859200    -0.00000000
H     -5.88247900    -0.47367300    -0.00000000
H     -5.97005900     2.01391700    -0.00000000
H     -3.83707600     3.32453300     0.00000000
H     -1.67200600     2.17477300     0.00000000
H      0.01610500     1.17316700     0.00000000
