024
BNPAH_000074_PAH03   C12_H10_N01_B01  -542.56887995     0.00000000     7.69527000  2872.61347851     4.57780097   124.56830935 12019.01479409    30.55971786     0.04870001     1.32519478   127.86185953    -4.60800000    -0.16934088  -106.26300524  -444.60441392    -2.29060000    -0.08417800   -52.82249128  -221.00930350     2.31740000     0.08516288    53.44051396   223.59511042
C      3.57176800    -0.37613700    -0.00017900
C      2.86199100    -1.59537800    -0.00015700
C      1.47786800    -1.59206400    -0.00008700
C      0.74255800    -0.37385800    -0.00003700
C      1.45458100     0.87256600    -0.00005900
B      0.70421700     2.23189300    -0.00000700
C     -0.78840600     2.16577000     0.00006600
C     -1.43128200     0.91294200     0.00008500
C     -2.84400500     0.82808300     0.00015400
N     -3.49424900    -0.34580300     0.00017400
C     -2.85394400    -1.55105600     0.00013000
C     -1.47085900    -1.55149300     0.00006100
C     -0.70968600    -0.36602100     0.00003500
C      2.87254800     0.82141700    -0.00013100
H      4.66508000    -0.38190200    -0.00023400
H      3.40288400    -2.54530900    -0.00019400
H      0.95910300    -2.55296500    -0.00007200
H      1.33480900     3.26713400    -0.00002700
H     -1.45035700     3.04076100     0.00010900
H     -3.46531800     1.72477600     0.00019500
H     -4.51137600    -0.33454500     0.00022500
H     -3.47590100    -2.44384500     0.00015100
H     -0.97658700    -2.52249500     0.00002600
H      3.41880500     1.76873000    -0.00014700
