018
BNPAH_002183_PAH01   C02_H08_N04_B04  -399.11356543     0.00000000     0.00000000  1726.91367575     2.75201212    74.88606406  7225.40681934    25.39578935     0.04047077     1.10126565   106.25598264    -5.56690000    -0.20457980  -128.37576473  -537.12419962    -2.60320000    -0.09566584   -60.03121859  -251.17061856     2.96370000     0.10891397    68.34454614   285.95358106
N     -0.00000000     1.17965300     1.32320200
B     -0.00000000     2.51205400     0.80061100
B      0.00000000     2.57200200    -0.85687200
C      0.00000000     1.19466800    -1.41714500
N     -0.00000000    -1.17965300    -1.32320200
B     -0.00000000    -2.51205400    -0.80061100
B      0.00000000    -2.57200200     0.85687200
C      0.00000000    -1.19466800     1.41714500
N     -0.00000000    -0.02418500     0.66483700
N     -0.00000000     0.02418500    -0.66483700
H     -0.00000000     0.96964000     2.31926400
H     -0.00000000     3.32783600     1.68875200
H      0.00000000     3.51188400    -1.61053300
H      0.00000000     0.91873300    -2.47726000
H     -0.00000000    -0.96964000    -2.31926400
H     -0.00000000    -3.32783600    -1.68875200
H      0.00000000    -3.51188400     1.61053300
H      0.00000000    -0.91873300     2.47726000
