042
BNPAH_000091_PAH52   C24_H16_N01_B01 -1003.16364308     0.02500000    11.40302000  5246.95462271     8.36155443   227.52948542 21953.25814142    30.50555013     0.04861369     1.32284585   127.63522174    -4.52250000    -0.16619881  -104.29132838  -436.35491796    -2.99330000    -0.11000175   -69.02713836  -288.80954692     1.52920000     0.05619706    35.26419002   147.54537104
C     -2.58911100    -0.67401700     0.00136700
C     -2.81707700     0.75125500     0.00470500
C     -1.79565900     1.67362900     0.00546800
B     -0.34675400     1.15299400     0.00251000
C      0.92026400     2.00076000     0.00275900
C      2.22190600     1.48044800    -0.00023000
C      2.27827500    -0.00018900    -0.00247100
C      3.50859000    -0.66335500    -0.00361900
C      4.71591200     0.00797300    -0.00249100
C      4.76156300     1.40920500    -0.00093300
C      3.54617500     2.19448600    -0.00084700
C      3.71812500     3.62446200    -0.00171100
C      2.63776800     4.56071000    -0.00513500
C      2.77682800     5.92356000    -0.00560000
C      4.07632300     6.47496900    -0.00270600
C      5.12817500     5.60936000    -0.00021900
N      5.00186600     4.23360400    -0.00004000
C      6.19398400     3.46018400     0.00139200
C      7.47451900     4.06184300     0.00308900
C      8.62552700     3.29061700     0.00391400
C      8.52562200     1.89155900     0.00300300
C      7.27593600     1.30013400     0.00133200
C      6.07171800     2.05422200     0.00050600
C      1.12949900    -0.84410200    -0.00299800
C     -0.17562300    -0.37667200    -0.00089900
C     -1.33054900    -1.22760600    -0.00129600
H     -3.46448900    -1.33132100     0.00104000
H     -3.86536600     1.07699500     0.00667800
H     -2.07507600     2.73605700     0.00809200
H      1.64253200     4.15575300    -0.00795900
H      3.50603500    -1.75682500    -0.00500300
H      5.63090300    -0.57815100    -0.00300600
H      0.72024800     3.06607100     0.00614300
H      1.89095600     6.56098800    -0.00828400
H      4.26464600     7.54848500    -0.00281900
H      6.14177200     5.98674500     0.00150700
H      7.60771700     5.14016400     0.00376400
H      9.60030700     3.78222300     0.00522800
H      9.42373500     1.27076700     0.00362500
H      7.22434100     0.21431200     0.00074200
H      1.33750900    -1.92331600    -0.00493900
H     -1.21574100    -2.31900700    -0.00365700
