024
BNPAH_000052_PAH03   C12_H10_N01_B01  -542.59942075     0.00000000     3.71841000  2891.77812597     4.60834178   125.39936711 12099.19967906    30.76359708     0.04902491     1.33403582   128.71489018    -5.09110000    -0.18709448  -117.40355598  -491.21647824    -2.02040000    -0.07424833   -46.59153120  -194.93896656     3.07070000     0.11284614    70.81202478   296.27751168
C      3.60192200    -0.23669700    -0.00018100
C      3.04669200    -1.51833400    -0.00016800
C      1.66276300    -1.72117400    -0.00010100
B      0.73278700    -0.52381300    -0.00004000
C      1.44534600     0.83231200    -0.00006000
C      0.71342300     2.05689200    -0.00000900
C     -0.65905500     2.03366300     0.00006000
C     -1.44913400     0.82280600     0.00008600
C     -2.86400100     0.91597500     0.00015900
C     -3.65202000    -0.22636800     0.00018600
C     -3.04490500    -1.49690000     0.00014100
C     -1.65754300    -1.60338300     0.00007000
C     -0.81910900    -0.46542400     0.00004000
N      2.81220900     0.86151300    -0.00012800
H      4.67688800    -0.05461000    -0.00023300
H      3.75131200    -2.35590400    -0.00021300
H      1.32562200    -2.76473900    -0.00009600
H      1.23691700     3.02177400    -0.00002500
H     -1.20188800     2.98377900     0.00009800
H     -3.33254200     1.90477900     0.00019400
H     -4.74176100    -0.14047400     0.00024300
H     -3.66562300    -2.39689500     0.00016300
H     -1.20097300    -2.59760400     0.00003500
H      3.27691100     1.77002700    -0.00014100
