042
BNPAH_000369_PAH54   C24_H16_N01_B01 -1003.19788711     0.00000000     7.70368000  5268.44307745     8.39579846   228.46131300 22043.16583605    30.63048301     0.04881278     1.32826345   128.15794091    -4.63200000    -0.17022286  -106.81645839  -446.92006191    -2.65680000    -0.09763560   -61.26726396  -256.34223240     1.97520000     0.07258726    45.54919443   190.57782951
C      7.82993200     1.70381300     0.00003300
C      7.79013400     0.28128400     0.00001700
C      6.58138300    -0.38064600     0.00000100
C      5.35475100     0.34767000     0.00000100
C      4.09381300    -0.27983700    -0.00001500
C      2.89077300     0.43180700    -0.00001500
C      2.92189500     1.86238100     0.00000200
C      4.17405300     2.48769400     0.00001700
C      5.39288000     1.78142500     0.00001800
C      6.66198300     2.43524600     0.00003400
C      1.65104900     2.61302600    -0.00000600
C      1.73790500     4.00349300    -0.00000300
C      0.63392800     4.88778400    -0.00002200
C     -0.65647500     4.41109900    -0.00005000
B     -0.88704200     2.91484700    -0.00005400
C      0.34154100     1.93629200    -0.00002100
C      0.32159300     0.49961400    -0.00001400
C      1.58038100    -0.24023400    -0.00002600
C      1.59127900    -1.62335100    -0.00005100
N      0.47664000    -2.36996300    -0.00005400
C     -0.77450900    -1.79936200    -0.00001900
C     -1.88231400    -2.67192700    -0.00000800
C     -3.16832300    -2.16525800     0.00004000
C     -3.33435600    -0.77132200     0.00008200
C     -2.23621100     0.07676700     0.00006800
C     -0.89177900    -0.37546900     0.00000900
H      8.79594200     2.21460200     0.00004600
H      8.72526800    -0.28402200     0.00001700
H      6.54786900    -1.47388200    -0.00001200
H      4.10655800    -1.37066200    -0.00002500
H      4.24378800     3.57423700     0.00003000
H      6.69149100     3.52808000     0.00004600
H      2.72172400     4.46922700     0.00001100
H      0.85293500     5.96311700    -0.00001900
H     -1.48096600     5.13263600    -0.00007000
H     -2.41204000     1.14243600     0.00010400
H      2.51621900    -2.19369800    -0.00007000
H      0.54993900    -3.38229700    -0.00007300
H     -1.70096300    -3.75058400    -0.00003500
H     -4.02890100    -2.83751600     0.00005100
H     -4.33670100    -0.33777300     0.00012700
H     -2.04477600     2.60927000    -0.00009100
