018
BNPAH_000466_PAH01   C04_H08_N03_B03  -395.87521825     0.00000000     5.52606000  1920.55669645     3.06060191    83.28322013  8035.60921795    28.24348083     0.04500885     1.22475324   118.17072379    -5.43810000    -0.19984649  -125.40556614  -524.69688875    -1.61180000    -0.05923256   -37.16899129  -155.51505954     3.82630000     0.14061393    88.23657486   369.18182921
B      0.00000000     1.25692000     1.46761400
N      0.00000000     2.45317400     0.72746900
N     -0.00000000     2.47962800    -0.66054700
B     -0.00000000     1.32029000    -1.46273200
C      0.00000000    -1.28826900    -1.46671600
B      0.00000000    -2.61725000    -0.74589200
C     -0.00000000    -2.47539100     0.76543300
N     -0.00000000    -1.24984000     1.33060500
C      0.00000000    -0.05411900     0.66422400
C      0.00000000    -0.06708600    -0.76063500
H      0.00000000     1.33151000     2.67140600
H     -0.00000000     3.37383100     1.15258200
H     -0.00000000     3.41909600    -1.04353800
H     -0.00000000     1.48897200    -2.65470500
H      0.00000000    -1.20263500    -2.56110900
H      0.00000000    -3.70227500    -1.27563300
H     -0.00000000    -3.28466100     1.50326400
H     -0.00000000    -1.18189600     2.34891200
