038
BNPAH_000183_PAH29   C22_H14_N01_B01  -925.84425197     0.00000000     8.83558000  4817.17246278     7.67665296   208.89236718 20155.04958427    30.48843331     0.04858641     1.32210359   127.56360497    -4.27190000    -0.15698943   -98.51235505  -412.17569354    -3.09370000    -0.11369138   -71.34241738  -298.49667434     1.17820000     0.04329805    27.16993767   113.67901920
C      7.51018400     1.93547200     0.00000100
C      7.46565100     0.51599800     0.00000100
C      6.25353200    -0.14437700     0.00000000
C      5.00647900     0.54624200    -0.00000000
C      5.04953900     2.00333300    -0.00000000
C      6.33490600     2.64657700     0.00000000
C      3.87159500     2.77334700    -0.00000000
B      2.51805300     2.10469700    -0.00000100
C      1.14937400     2.79787300    -0.00000100
C      0.00974500     2.03328000    -0.00000100
C      0.02756800     0.59339500    -0.00000000
C      1.27238500    -0.13664100    -0.00000100
C      1.24958000    -1.58659300    -0.00000100
C      2.50081500    -2.27403300    -0.00000100
C      3.69064400    -1.59019900    -0.00000100
C      3.74500400    -0.15962300    -0.00000100
C      2.51215400     0.56488200    -0.00000100
C      0.03653600    -2.28856200    -0.00000000
C     -1.19167600    -1.61098500    -0.00000000
C     -2.44996200    -2.26459600     0.00000000
C     -3.64677600    -1.55286600     0.00000100
C     -3.59954700    -0.16160900     0.00000100
N     -2.40145000     0.45880200     0.00000000
C     -1.17749900    -0.16206100    -0.00000000
H      8.47318600     2.45245700     0.00000100
H      8.39555100    -0.05838500     0.00000100
H      6.26434800    -1.23501000     0.00000000
H      6.35057400     3.74009600     0.00000100
H      4.01374600     3.86217600    -0.00000000
H      1.02018500     3.88714800    -0.00000100
H     -0.96459300     2.54475200    -0.00000100
H      2.49474100    -3.36714800    -0.00000100
H      4.61342300    -2.17203200    -0.00000100
H      0.04071200    -3.38114500    -0.00000000
H     -2.46711700    -3.35709700     0.00000000
H     -4.61224500    -2.05888600     0.00000100
H     -4.48043500     0.47967200     0.00000100
H     -2.38589100     1.47703900     0.00000000
