018
BNPAH_000050_PAH01   C06_H08_N02_B02  -392.50129815     0.00000000     5.59158000  2029.12642044     3.23361878    87.99124892  8489.86494312    29.84009442     0.04755322     1.29398895   124.85095505    -5.58370000    -0.20519719  -128.76318193  -538.74515322    -1.31960000    -0.04849441   -30.43069916  -127.32204527     4.26410000     0.15670279    98.33248278   411.42310794
B      0.00000000     1.21466700     1.42017300
N     -0.00000000     2.42860000     0.69322400
C      0.00000000     2.44082900    -0.69299600
C      0.00000000     1.27677600    -1.38593300
C      0.00000000    -1.21393700    -1.46078600
B     -0.00000000    -2.55726500    -0.75730300
C      0.00000000    -2.45548200     0.77134100
C      0.00000000    -1.22731700     1.36478800
N      0.00000000    -0.02534400     0.66319000
C      0.00000000    -0.02570400    -0.74841000
H     -0.00000000     1.19973500     2.61765100
H     -0.00000000     3.32534600     1.16669800
H     -0.00000000     3.41593200    -1.18312000
H     -0.00000000     1.29744800    -2.47551700
H     -0.00000000    -1.09230100    -2.54950500
H     -0.00000000    -3.61205800    -1.34774300
H     -0.00000000    -3.31022800     1.45588200
H      0.00000000    -1.07969600     2.44836800
