030
BNPAH_000105_PAH08   C16_H12_N01_B01  -696.14225894     0.00000000     4.25800000  3690.28495833     5.88084342   160.02590036 15440.15226565    30.75237465     0.04900703     1.33354917   128.66793554    -5.25660000    -0.19317649  -121.22007668  -507.18480083    -2.00270000    -0.07359787   -46.18335950  -193.23117616     3.25390000     0.11957862    75.03671718   313.95362467
C      2.30019900    -0.22204700    -0.00000000
C      2.15119700    -1.59480200     0.00000000
C      0.86488800    -2.19770600     0.00000000
C      0.74273800    -3.61883400     0.00000000
C     -0.49219500    -4.20384400     0.00000000
C     -1.69134400    -3.41878100     0.00000000
C     -2.93270600    -4.15609300    -0.00000000
C     -4.17309900    -3.57999200    -0.00000000
C     -4.30464800    -2.15660500    -0.00000000
B     -3.03612400    -1.27359200     0.00000000
C     -3.37957100     0.20899800     0.00000000
N     -4.67408100     0.61308900     0.00000000
C     -5.76356700    -0.20454000     0.00000000
C     -5.59248700    -1.57369200    -0.00000000
C     -1.64287300    -1.99384100    -0.00000000
C     -0.32202900    -1.38363200    -0.00000000
C     -0.11491400     0.02494400    -0.00000000
C      1.14678500     0.59260100    -0.00000000
H      3.29515200     0.22970000    -0.00000000
H      3.02882500    -2.24740000     0.00000000
H      1.65165600    -4.22665900     0.00000100
H     -0.58517100    -5.29355900     0.00000000
H     -2.85188100    -5.24754700    -0.00000000
H     -5.06612800    -4.21587000    -0.00000100
H     -0.97417300     0.68726100    -0.00000100
H     -4.86199900     1.61357800     0.00000100
H     -6.73492700     0.28942800     0.00000000
H     -6.49077200    -2.20030600    -0.00000100
H     -2.70745800     1.06879500     0.00000100
H      1.24914800     1.68095700    -0.00000100
