036
BNPAH_000365_PAH22   C20_H14_N01_B01  -849.67413795     0.00000000     3.00265000  4481.91479794     7.14238587   194.35421897 18752.33151458    30.69804656     0.04892045     1.33119328   128.44062681    -4.56710000    -0.16783783  -105.31982883  -440.65816381    -2.48370000    -0.09127429   -57.27548310  -239.64062128     2.08340000     0.07656354    48.04434573   201.01754253
C      2.62230300    -0.25624000    -0.00000200
C      2.54565200    -1.68162000    -0.00000200
C      1.32681200    -2.31595900    -0.00000000
C      0.10622500    -1.56457400     0.00000100
C     -1.15160900    -2.18143500     0.00000200
C     -2.34107300    -1.41897400     0.00000200
C     -3.58668500    -2.08722900     0.00000200
N     -4.79286300    -1.47232700     0.00000100
C     -4.87292700    -0.05813600     0.00000100
C     -6.16082300     0.54304100     0.00000000
C     -7.32829300    -0.16733400    -0.00000100
C     -7.26043000    -1.59637900    -0.00000100
C     -8.43901400    -2.38459700    -0.00000200
C     -8.39020200    -3.76792500    -0.00000200
C     -7.14088000    -4.41076000    -0.00000000
C     -5.96651900    -3.66661000     0.00000100
C     -5.99837400    -2.25747900     0.00000100
B     -3.60389600     0.77683500     0.00000200
C     -2.27521700     0.02697200     0.00000200
C     -1.00931000     0.62915400     0.00000100
C      0.18447200    -0.11712400     0.00000000
C      1.47386400     0.50048700    -0.00000100
H      3.60115700     0.22924100    -0.00000300
H      3.46772800    -2.26828900    -0.00000200
H      1.26946800    -3.40781400    -0.00000000
H     -1.20641100    -3.27451000     0.00000200
H     -3.59119700    -3.17131600     0.00000200
H     -6.17023700     1.63465300     0.00000000
H     -8.30363900     0.32229700    -0.00000200
H     -9.39993600    -1.86448500    -0.00000300
H     -9.31188300    -4.35394100    -0.00000200
H     -7.08078500    -5.50112600     0.00000000
H     -5.02531400    -4.21196100     0.00000200
H     -3.68669400     1.98172900     0.00000100
H     -0.94520800     1.72136100     0.00000100
H      1.52831700     1.59238500    -0.00000100
