042
BNPAH_000195_PAH44   C24_H16_N01_B01 -1003.20754525     0.00000000    11.89643000  5274.50365603     8.40545661   228.72412456 22068.52329683    30.66571893     0.04886893     1.32979142   128.30536800    -4.47850000    -0.16458184  -103.27666427  -432.10956331    -3.34530000    -0.12293751   -77.14445126  -322.77238409     1.13320000     0.04164433    26.13221301   109.33717922
C     -2.86173300     0.07384100    -0.00000100
C     -2.76905400     1.45373800    -0.00000100
C     -1.50607200     2.09956200    -0.00000000
C     -1.41004700     3.52580600    -0.00000000
C     -0.19544800     4.16493800     0.00000000
C      1.00720000     3.40579700     0.00000000
N      2.21469400     4.04979400     0.00000100
C      3.45160600     3.42835000     0.00000000
C      4.64111000     4.12552300     0.00000000
C      5.89211400     3.44661100     0.00000000
C      7.10513600     4.14889500    -0.00000000
C      8.32411800     3.46408300    -0.00000100
C      8.42099900     2.06647900    -0.00000000
C      9.71892600     1.44661900    -0.00000100
C      9.90461300     0.08470000    -0.00000000
B      8.67885600    -0.83191200     0.00000000
C      7.31777000    -0.12448900     0.00000000
C      7.21106100     1.26425800     0.00000000
C      5.91683600     1.98121200     0.00000000
C      4.70415100     1.31348700     0.00000000
C      3.44737300     1.98212400     0.00000000
C      2.22670000     1.30760500     0.00000000
C      0.97970100     1.98481000     0.00000000
C     -0.30707800     1.31415500     0.00000000
C     -0.43697200    -0.09736600     0.00000000
C     -1.68319800    -0.70333900    -0.00000000
H     -3.83883700    -0.41396800    -0.00000100
H     -3.67217500     2.06956500    -0.00000100
H     -2.33194900     4.11235000    -0.00000000
H     -0.13896600     5.25650500     0.00000000
H      2.20346700     5.06612100     0.00000100
H      4.63704200     5.21913200     0.00000000
H      7.09056700     5.24152000    -0.00000000
H      9.25287000     4.04337400    -0.00000100
H     10.57328300     2.13677700    -0.00000100
H     10.93873000    -0.28033900    -0.00000000
H      8.75971600    -2.04126300     0.00000100
H      6.38745200    -0.70453300     0.00000100
H      4.68672600     0.22268300     0.00000000
H      2.24884200     0.21688600     0.00000000
H      0.45409000    -0.72657500     0.00000000
H     -1.75192000    -1.79357700    -0.00000000
