042
BNPAH_000207_PAH63   C24_H16_N01_B01 -1003.20613036     4.79200000     4.58820000  5273.61579772     8.40404172   228.68562338 22064.80849766    30.66055696     0.04886071     1.32956758   128.28377032    -5.17660000    -0.19023654  -119.37523284  -499.46597420    -2.39510000    -0.08801830   -55.23231854  -231.09202079     2.78150000     0.10221824    64.14291430   268.37395341
C      2.49542300    -0.14018700     0.26674400
C      2.31606300    -1.33268900    -0.40707100
C      1.04143500    -1.95581000    -0.46381100
C      0.87562900    -3.23961800    -1.05752000
C     -0.31169100    -3.91645400    -0.93914000
C     -1.43841200    -3.29876000    -0.32803200
N     -2.60343100    -4.07098100    -0.03537200
C     -2.50537800    -5.44000100     0.04614600
B     -3.61914300    -6.32549400     0.52639200
C     -4.81686300    -5.54885600     1.02942000
C     -4.82800000    -4.16938300     0.89325700
C     -3.78690400    -3.41642500     0.30152200
C     -3.87153600    -1.98126900     0.09283000
C     -5.14219600    -1.31140500    -0.12321500
C     -6.35332600    -1.98736400    -0.45093000
C     -7.54200900    -1.30164800    -0.63026000
C     -7.59082300     0.10390500    -0.49754900
C     -6.42276400     0.80107200    -0.26070600
C     -5.18370000     0.12360900    -0.10782300
C     -3.96208300     0.85098000    -0.04187200
C     -2.75621100     0.20058000    -0.01109400
C     -2.67638900    -1.22334100     0.08983800
C     -1.40532800    -1.93416900     0.00914600
C     -0.09872100    -1.30757900     0.11808500
C      0.13790700    -0.11506200     0.85793000
C      1.39993700     0.45041300     0.93380400
H      3.48289100     0.32423500     0.31613100
H      3.16250900    -1.83364200    -0.88385000
H      1.72103900    -3.70458800    -1.56961700
H     -0.40262100    -4.91722100    -1.35754800
H     -1.49966800    -5.80342300    -0.15650000
H     -3.48160500    -7.52354500     0.58050200
H     -5.67579800    -5.99326300     1.54572300
H     -6.34278600    -3.06557700    -0.60321500
H     -5.66002800    -3.58189800     1.28583300
H     -8.44658300    -1.85509400    -0.89310200
H     -8.53746700     0.63498800    -0.62146300
H     -6.42655800     1.89336300    -0.21638100
H     -3.99507100     1.94204100    -0.09583000
H     -0.67406900     0.33359100     1.42883000
H     -1.84234900     0.78304800    -0.10145600
H      1.54937300     1.35290100     1.53122400
