036
BNPAH_000154_PAH23   C20_H14_N01_B01  -849.72692416     0.00100000     2.79231000  4515.03864754     7.19517208   195.79060503 18890.92170131    30.92492224     0.04928200     1.34103154   129.38987465    -4.97080000    -0.18267353  -114.62937206  -479.60929269    -2.34880000    -0.08631681   -54.16461517  -226.62474987     2.62200000     0.09635672    60.46475689   252.98454282
C      2.61580000    -0.17993500     0.00000100
C      2.54890500    -1.60108100    -0.00001900
C      1.33738400    -2.25783600    -0.00002200
C      0.09503300    -1.54850300    -0.00000600
C      0.18022600    -0.10561000     0.00001500
C     -0.99501700     0.65951400     0.00003600
N     -2.21059800     0.10058800     0.00003300
B     -2.47081900    -1.34263400     0.00000500
C     -3.87039800    -2.02289000    -0.00000200
C     -3.81766100    -3.44973600     0.00000300
C     -5.01646900    -4.23490300     0.00001600
C     -6.25045900    -3.65073400     0.00002500
C     -6.37686200    -2.22916700     0.00001100
C     -7.66895300    -1.64119800     0.00001200
C     -7.83839000    -0.27061200    -0.00001100
C     -6.69451800     0.55376400    -0.00003900
C     -5.42644900    -0.00217300    -0.00003900
C     -5.19257200    -1.40817800    -0.00000800
C     -2.57780000    -4.18116900    -0.00000600
C     -1.33633300    -3.60077500    -0.00001400
C     -1.19026100    -2.18101300    -0.00000700
C      1.45109700     0.54892500     0.00001800
H      3.58595300     0.32156200     0.00000300
H      3.47585400    -2.18041800    -0.00003300
H      1.32752000    -3.34833900    -0.00003700
H     -0.94110500     1.75150200     0.00005800
H     -4.59633300     0.70011700    -0.00007300
H     -4.92232800    -5.32428800     0.00002200
H     -7.15917800    -4.25870900     0.00003800
H     -8.53736100    -2.30586300     0.00002900
H     -8.83823700     0.16945400    -0.00001100
H     -6.80463500     1.64112600    -0.00006400
H     -2.97508200     0.76742200     0.00005700
H     -2.65280800    -5.27243500    -0.00000500
H     -0.46214300    -4.25801000    -0.00002100
H      1.47807700     1.64224600     0.00003400
