036
BNPAH_000104_PAH23   C20_H14_N01_B01  -849.65399100     0.00000000     4.75785000  4469.27239219     7.12223891   193.80599237 18699.43568892    30.61145474     0.04878246     1.32743830   128.07832663    -5.08830000    -0.18699158  -117.33898645  -490.94631931    -2.40790000    -0.08848869   -55.52749356  -232.32703305     2.68040000     0.09850288    61.81149289   258.61928626
C      2.66768100    -0.31113600     0.00000000
C      2.45011700    -1.71886200     0.00000100
C      1.19364500    -2.30749600     0.00000100
C      0.01538000    -1.51046300     0.00000000
B      0.18670500     0.01070600    -0.00000100
C     -1.11267500     0.77638900    -0.00000100
C     -2.30810200     0.08835400    -0.00000100
C     -2.46623900    -1.32343500    -0.00000000
C     -3.77901900    -2.00117400     0.00000000
C     -3.77253000    -3.42636500    -0.00000000
C     -4.95339700    -4.22298700    -0.00000100
C     -6.18126700    -3.63977500    -0.00000000
C     -6.29132300    -2.21918700     0.00000000
C     -7.60656900    -1.68395000     0.00000000
C     -7.84188600    -0.32624500     0.00000100
C     -6.72783200     0.52887100     0.00000100
C     -5.43454500     0.02901800     0.00000100
C     -5.12087400    -1.36451500     0.00000000
C     -2.53608900    -4.13086000    -0.00000000
C     -1.35926000    -3.47482100    -0.00000000
N     -1.27712600    -2.09312700     0.00000000
C      1.60800800     0.56977800    -0.00000100
H      3.70637700     0.03967400     0.00000000
H      3.32117800    -2.38079900     0.00000200
H      1.18942600    -3.39937300     0.00000100
H     -1.18734900     1.87044800    -0.00000200
H     -4.66954000     0.78955500     0.00000100
H     -4.84095100    -5.30939300    -0.00000100
H     -7.09499100    -4.23831200    -0.00000100
H     -8.43947300    -2.39162500    -0.00000000
H     -8.85870700     0.07193900     0.00000100
H     -6.86738300     1.61244700     0.00000100
H     -3.21145700     0.67063000    -0.00000100
H     -2.53735300    -5.22166700    -0.00000100
H     -0.41696100    -4.00651700    -0.00000000
H      1.82745900     1.64428900    -0.00000100
