036
BNPAH_000171_PAH19   C20_H14_N01_B01  -849.65622860     0.00000000    10.12823000  4470.67650528     7.12447651   193.86688048 18705.31049809    30.62107195     0.04879778     1.32785535   128.11856504    -4.36260000    -0.16032259  -100.60394676  -420.92691323    -3.08090000    -0.11322099   -71.04724237  -297.26166208     1.28170000     0.04710161    29.55670439   123.66525116
C      2.57074500    -0.12751700    -0.00000000
C      2.47053100    -1.52571600    -0.00000000
N      1.24732800    -2.09268700    -0.00000000
C      0.06419700    -1.40270700     0.00000000
C     -1.16517500    -2.07154300     0.00000000
C     -2.38346100    -1.38573600     0.00000000
C     -2.35728900     0.09160900     0.00000000
C     -3.55016400     0.82678500     0.00000000
B     -4.88202500     0.15119500    -0.00000000
C     -4.89070600    -1.41216400    -0.00000000
C     -3.65590200    -2.11403900     0.00000000
C     -3.65824400    -3.54837200     0.00000000
C     -4.82139900    -4.27211200     0.00000000
C     -6.08764600    -3.61819800     0.00000000
C     -7.30011400    -4.35562400     0.00000000
C     -8.52191100    -3.70858800    -0.00000000
C     -8.56630100    -2.29536500    -0.00000000
C     -7.39709900    -1.55626700    -0.00000000
C     -6.11781800    -2.18277700    -0.00000000
C     -1.08596200     0.73408900     0.00000000
C      0.12134900     0.04552400     0.00000000
C      1.41793100     0.64291000     0.00000000
H      3.55977500     0.33151100    -0.00000000
H      3.32576800    -2.20001900    -0.00000100
H      1.18596700    -3.10948900    -0.00000000
H     -1.14412500    -3.16259000    -0.00000000
H     -3.43274400     1.91728400     0.00000000
H     -5.90628800     0.79357400    -0.00000000
H     -2.71894400    -4.10304900     0.00000000
H     -4.79019500    -5.36526200     0.00000000
H     -7.25059000    -5.44826600     0.00000000
H     -9.45059500    -4.28504600    -0.00000000
H     -9.53197100    -1.78344000    -0.00000000
H     -7.43848000    -0.46773600    -0.00000000
H     -1.06730700     1.82684100     0.00000000
H      1.49158500     1.73299800     0.00000000
