042
BNPAH_000181_PAH35   C24_H16_N01_B01 -1003.18910607     5.93100000     6.78999000  5262.93289381     8.38701743   228.22236883 22020.11122770    30.59844706     0.04876173     1.32687424   128.02390250    -4.39170000    -0.16139200  -101.27500870  -423.73463642    -2.63080000    -0.09668012   -60.66768971  -253.83361375     1.76090000     0.06471188    40.60731899   169.90102267
C     -0.02402600     0.73409800     0.02929000
C     -0.04040800    -0.72426500     0.02017200
C     -0.22909700    -2.95778500    -1.08987400
C      0.03176000     2.95531700    -1.11112200
C     -0.27161500     0.63949900     2.45436700
N      0.25187300    -0.65950500     2.43646400
C     -0.45366500     1.36480900     1.24647000
C      0.18465500    -1.40788800     1.23205200
C     -0.53467200    -3.74643600    -2.23231700
C      0.44084600     3.71018300    -2.26366600
C     -0.38974100    -1.53378700    -1.13988400
C      0.37337500     1.54101400    -1.08228500
C     -0.66513300     3.57111900    -0.04938800
C      0.15112800    -3.57202400     0.13624200
B     -0.90000000     2.84878800     1.23581800
C      0.29349500    -2.82543100     1.27845000
C     -1.05413100    -3.16798000    -3.37288300
C      1.19395300     3.15833100    -3.27185700
C     -0.98330200    -0.98300900    -2.30944600
C      1.19379900     1.01991800    -2.13335900
C     -1.30948800    -1.77773100    -3.39341600
C      1.60291100     1.79698400    -3.19271700
C     -0.48403800     1.21973100     3.74099800
C      0.75172200    -1.22839300     3.59168200
C     -0.07415200     0.60670700     4.89788200
C      0.60881200    -0.63498300     4.81392800
H      0.15570400     4.76506200    -2.30341600
H     -0.37811700    -4.82694300    -2.17734900
H     -0.92532700     4.62550600    -0.20310100
H      0.24909200    -4.65917000     0.17932900
H     -1.35955300     3.38935100     2.21735800
H      0.45975300    -3.33946600     2.22397100
H     -1.29632900    -3.78286700    -4.24289800
H      1.50362300     3.76891400    -4.12444700
H     -1.19895400     0.08352000    -2.34410600
H      1.53297300    -0.01562300    -2.07185400
H     -1.77533500    -1.32346700    -4.27085700
H      2.25309600     1.37484400    -3.96273500
H     -0.23826900     1.08378900     5.86597100
H      1.02775800    -1.12238700     5.69468400
H      1.27696300    -2.17097100     3.46632000
H     -0.95193900     2.20262700     3.74671800
