036
BNPAH_000080_PAH18   C20_H14_N01_B01  -849.64346159     0.00000000    12.34326000  4462.66508898     7.11170950   193.51947259 18671.79073229    30.56619924     0.04871034     1.32547584   127.88897762    -4.43530000    -0.16299427  -102.28044860  -427.94139693    -3.35850000    -0.12342260   -77.44885050  -324.04599049     1.07680000     0.03957167    24.83159810   103.89540645
C     -2.36412400    -3.48849300     0.00000000
C     -2.28969400    -2.10575200     0.00000000
C     -1.02522100    -1.44698900    -0.00000000
B      0.26515900    -2.29427600    -0.00000000
C      0.08228200    -3.81657500     0.00000000
C     -1.20398100    -4.32650400     0.00000000
C      1.56978400    -1.51557100    -0.00000000
C      1.58681200    -0.10775400    -0.00000000
C      0.32707600     0.62509900    -0.00000000
C      0.34617000     2.05016000    -0.00000000
C      1.50665200     2.78586900    -0.00000000
C      2.77313700     2.13098100     0.00000000
C      3.96731000     2.86325100     0.00000000
C      5.23180100     2.24655700     0.00000000
C      6.46491400     2.93574200     0.00000000
C      7.68111600     2.24527400     0.00000000
C      7.67361200     0.85556300    -0.00000000
N      6.49573100     0.19180200    -0.00000000
C      5.25731800     0.80029500     0.00000000
C      4.08450000     0.05369400     0.00000000
C      2.81733200     0.66603200     0.00000000
C     -0.91174600    -0.04541500    -0.00000000
H     -3.34784900    -3.96870700     0.00000000
H     -3.21819500    -1.51990300    -0.00000000
H      0.91003000    -4.53845800     0.00000000
H     -1.37750400    -5.41027900     0.00000000
H      2.53675400    -2.03397000     0.00000000
H     -0.61735700     2.56881000    -0.00000000
H      1.47953400     3.87781500    -0.00000000
H      3.91805200     3.95502500     0.00000000
H      6.45904600     4.02816500     0.00000000
H      8.63439300     2.77371700    -0.00000000
H      8.57627500     0.24499700    -0.00000100
H      6.50956300    -0.82604200    -0.00000000
H      4.15452500    -1.03540000    -0.00000000
H     -1.81473800     0.58128000    -0.00000000
