042
BNPAH_000401_PAH54   C24_H16_N01_B01 -1003.21076094     0.00000000    11.52340000  5276.52152700     8.40867229   228.81162773 22076.96606897    30.67745074     0.04888763     1.33030016   128.35445390    -4.29850000    -0.15796696   -99.12576563  -414.74220340    -2.68460000    -0.09865723   -61.90834719  -259.02452466     1.61390000     0.05930973    37.21741844   155.71767874
N      7.79929100     1.71874000    -0.00000400
C      7.80692700     0.33586600    -0.00000200
C      6.63236700    -0.35342200     0.00000000
C      5.36754700     0.33728300     0.00000000
C      4.13614400    -0.28442400     0.00000200
C      2.88693100     0.41551900     0.00000200
C      2.94269400     1.88329500     0.00000000
C      4.18120300     2.50229000    -0.00000200
C      5.41232300     1.78960600    -0.00000200
C      6.64021800     2.43086600    -0.00000400
C      1.70419500     2.69521200     0.00000100
C      1.79836900     4.10767100     0.00000100
C      0.67627400     4.92513100     0.00000300
C     -0.59279900     4.33667400     0.00000500
C     -0.70033400     2.95011200     0.00000400
C      0.41366500     2.07403100     0.00000200
B      0.30251600     0.49551500     0.00000100
C      1.64197100    -0.27073400     0.00000300
C      1.61907500    -1.71107900     0.00000600
C      0.45991000    -2.42819800     0.00000500
C     -0.84773400    -1.82076900     0.00000200
C     -1.97452900    -2.67784100     0.00000000
C     -3.26684600    -2.17317600    -0.00000400
C     -3.45211900    -0.78250900    -0.00000800
C     -2.34821300     0.06708700    -0.00000700
C     -1.00463500    -0.39042500    -0.00000100
H      8.68347300     2.21576300    -0.00000600
H      8.78915100    -0.13564400    -0.00000200
H      6.65600600    -1.44442300     0.00000200
H      4.12753600    -1.37336300     0.00000400
H      4.25225100     3.58950700    -0.00000300
H      6.73739300     3.51758500    -0.00000600
H      2.77201200     4.59777600     0.00000000
H      0.79128700     6.01200100     0.00000400
H     -1.49326400     4.95634500     0.00000700
H     -2.56327100     1.13275500    -0.00001000
H      2.54937500    -2.28503900     0.00000800
H      0.50485800    -3.52159800     0.00000800
H     -1.80834400    -3.75935200     0.00000300
H     -4.12629800    -2.84899300    -0.00000600
H     -4.46084000    -0.36109600    -0.00001200
H     -1.70344800     2.53549700     0.00000700
