042
BNPAH_000487_PAH75   C24_H16_N01_B01 -1003.24374179     0.00000000     3.69280000  5297.21733041     8.44165315   229.70908270 22163.55731044    30.79777518     0.04907938     1.33551792   128.85789135    -4.86140000    -0.17865316  -112.10654811  -469.05379727    -2.41820000    -0.08886721   -55.76501720  -233.32083198     2.44320000     0.08978594    56.34153090   235.73296530
C      2.80853200     0.36067400    -0.00000100
C      2.86476200    -1.06314200    -0.00000100
C      1.70659100    -1.80692600    -0.00000000
C      0.42571000    -1.17175600     0.00000000
C     -0.77390200    -1.90999300     0.00000000
C     -2.03873200    -1.30332000     0.00000100
C     -2.07904100     0.14421300     0.00000000
C     -3.35244600     0.80279400     0.00000100
C     -4.51231800     0.08517500     0.00000100
C     -4.52559200    -1.35470400     0.00000100
C     -5.74506500    -2.11591500     0.00000000
N     -6.95534800    -1.45704400     0.00000000
C     -8.16176100    -2.03460700    -0.00000000
C     -8.32752800    -3.44037400    -0.00000000
C     -9.64327300    -3.99103800    -0.00000100
C     -9.82042700    -5.35948100    -0.00000100
C     -8.69397900    -6.21875000    -0.00000000
C     -7.41072800    -5.69503600     0.00000000
C     -7.17116100    -4.29594100     0.00000000
B     -5.77402500    -3.64078900     0.00000100
C     -4.39567200    -4.29687800     0.00000100
C     -3.27427500    -3.50152800     0.00000100
C     -3.28939700    -2.05976300     0.00000100
C     -0.89198700     0.88576900     0.00000000
C      0.37134900     0.26962000    -0.00000000
C      1.59416100     1.00857000    -0.00000100
H      3.73755200     0.93606400    -0.00000100
H      3.83657200    -1.56285600    -0.00000100
H      1.74971800    -2.89944500    -0.00000000
H     -0.68771200    -2.99710200     0.00000100
H     -3.37640900     1.89553400     0.00000100
H     -5.45289300     0.64606700     0.00000100
H     -6.94683500    -0.43754600    -0.00000000
H     -9.01830700    -1.35867500    -0.00000100
H    -10.50742100    -3.32031600    -0.00000100
H    -10.82787400    -5.78262100    -0.00000100
H     -8.84444400    -7.30145300    -0.00000000
H     -6.55475200    -6.37481700     0.00000000
H     -4.22914900    -5.38055900     0.00000100
H     -2.29214100    -3.98115300     0.00000100
H     -0.95231300     1.97809600     0.00000000
H      1.54736400     2.10095000    -0.00000100
