042
BNPAH_000285_PAH44   C24_H16_N01_B01 -1003.21397448     0.00100000     7.46922000  5278.53805706     8.41188584   228.89907275 22085.40323074    30.68917475     0.04890631     1.33080856   128.40350715    -4.76610000    -0.17515095  -109.90887788  -459.85874505    -2.63390000    -0.09679404   -60.73917741  -254.13271828     2.13220000     0.07835691    49.16970047   205.72602677
C     -2.82464400     0.04742400    -0.00000000
C     -2.76551200     1.43341100     0.00000100
C     -1.53075900     2.12130700     0.00000100
C     -1.48084900     3.55861800     0.00000100
C     -0.27445100     4.18619800     0.00000100
C      0.95928500     3.46622000     0.00000000
C      2.19523300     4.10916500    -0.00000000
C      3.42667700     3.43778700    -0.00000000
C      4.66338400     4.11776500    -0.00000100
C      5.87816800     3.42868100    -0.00000100
C      7.13120400     4.13650600    -0.00000100
C      8.32776200     3.47127800    -0.00000100
C      8.46364800     2.02589800    -0.00000000
C      9.75515500     1.44914200     0.00000000
C      9.91822600     0.06754200     0.00000100
C      8.78854500    -0.76785300     0.00000100
C      7.51084400    -0.20816300     0.00000100
C      7.30441200     1.18710700     0.00000000
B      5.89874000     1.87081800    -0.00000000
C      4.55561000     1.19112800    -0.00000000
C      3.38162500     1.97042700    -0.00000000
C      2.10881800     1.37668000    -0.00000000
N      0.93206000     2.05363100    -0.00000000
C     -0.32654800     1.36455100    -0.00000000
C     -0.39847500    -0.04016400    -0.00000100
C     -1.63075200    -0.68873100    -0.00000100
H     -3.78906100    -0.46452000     0.00000000
H     -3.68325600     2.02629600     0.00000100
H     -2.41524900     4.12205100     0.00000200
H     -0.20074800     5.27487200     0.00000100
H      2.18038100     5.20145500     0.00000000
H      4.64079500     5.21527600    -0.00000100
H      7.13377500     5.23344400    -0.00000100
H      9.25633300     4.05190000    -0.00000100
H     10.63220500     2.10359600    -0.00000000
H     10.92173300    -0.36621700     0.00000100
H      8.91358900    -1.85417700     0.00000100
H      6.64161700    -0.87281500     0.00000100
H      4.40704200     0.10334400    -0.00000000
H      2.04141700     0.29302800    -0.00000000
H      0.50013600    -0.65364000    -0.00000200
H     -1.65581400    -1.78032700    -0.00000200
