042
BNPAH_000281_PAH42   C24_H16_N01_B01 -1003.25525316     0.00000000     2.62863000  5304.44082144     8.45316452   230.02232292 22193.78039690    30.83977222     0.04914631     1.33733909   129.03360697    -4.78100000    -0.17569851  -110.25248005  -461.29637651    -2.20290000    -0.08095508   -50.80008122  -212.54753981     2.57810000     0.09474343    59.45239883   248.74883670
C      2.88083500    -0.03402600     0.00001400
C      2.74762100    -1.40403500    -0.00001100
C      1.45272900    -2.00749900    -0.00000700
C      1.24658200    -3.39525600    -0.00002700
C     -0.03250600    -3.96637200    -0.00002300
C     -0.14353700    -5.39352800    -0.00003300
C     -1.37032500    -5.97476600    -0.00001800
C     -2.57517700    -5.19265200    -0.00000100
C     -3.79687600    -5.92881500     0.00001700
C     -5.00389500    -5.29927400     0.00003200
C     -5.06375000    -3.87256600     0.00002100
C     -6.36687600    -3.30873800     0.00002900
C     -6.62574200    -1.95262700     0.00001000
C     -7.94989400    -1.39761200     0.00001800
C     -8.15318500    -0.04705000    -0.00000600
C     -7.01717900     0.82699400    -0.00004100
C     -5.76520900     0.29364800    -0.00004800
N     -5.52965600    -1.07682000    -0.00002300
B     -4.14971500    -1.56603000    -0.00003100
C     -3.86014900    -3.06989600    -0.00000200
C     -2.56656700    -3.76496200    -0.00000200
C     -1.22693100    -3.13302400    -0.00000200
C     -0.99609400    -1.75118500     0.00002300
C      0.28665800    -1.16664000     0.00002100
C      0.46597700     0.25154400     0.00004600
C      1.72742900     0.80304600     0.00004300
H      3.87470100     0.42045300     0.00001100
H      3.63015300    -2.04938800    -0.00003200
H      2.11238300    -4.06370900    -0.00004400
H      0.76981500    -5.99331600    -0.00004700
H     -1.47253800    -7.06302200    -0.00002000
H     -3.73878400    -7.02052900     0.00002000
H     -5.93635800    -5.86895200     0.00004700
H     -7.22267700    -3.98612200     0.00004900
H     -8.78597500    -2.09912600     0.00004400
H     -9.16373800     0.36632900     0.00000000
H     -7.13837400     1.91068900    -0.00006100
H     -4.86248300     0.90379900    -0.00007400
H     -1.83486300    -1.07043100     0.00004800
H     -3.39709600    -0.64019900    -0.00006800
H     -0.41940800     0.89294600     0.00006900
H      1.85145600     1.88875200     0.00006200
