038
BNPAH_000177_PAH62   C22_H14_N01_B01  -925.81578702     0.00300000     7.11255000  4799.31043003     7.64818800   208.11779614 20080.31483925    30.37538247     0.04840625     1.31720124   127.09060025    -4.51140000    -0.16579089  -104.03535630  -435.28393077    -2.77630000    -0.10202714   -64.02299945  -267.87222968     1.73510000     0.06376375    40.01235686   167.41170108
C      4.75621700     1.99774500     0.00025800
C      4.84036800     0.59407000     0.00071000
C      3.69733500    -0.19098400     0.00066200
C      2.35848300     0.31285700     0.00012600
C      2.29847100     1.77360000    -0.00016400
C      3.49991400     2.55315500    -0.00013800
C      1.08516300     2.49279200    -0.00039100
B     -0.22227500     1.79386900    -0.00027900
C     -1.58766600     2.49805800    -0.00034500
C     -2.72040300     1.74304500    -0.00017200
C     -2.67401600     0.30223200     0.00003700
C     -1.42066500    -0.43197800     0.00005200
C     -1.49574300    -1.85003900     0.00021500
C     -2.73152500    -2.51965900     0.00040400
C     -3.92064500    -1.79019400     0.00041600
C     -3.88989600    -0.40246600     0.00022400
N     -0.25680200    -2.56453000     0.00007000
C     -0.33529100    -3.94214700     0.00005600
C      0.74143100    -4.77815600    -0.00028100
C      2.01752400    -4.18563300    -0.00069700
C      2.10767700    -2.81692900    -0.00064300
C      1.00015200    -1.91234000    -0.00015200
C      1.09117500    -0.46666100    -0.00001600
C     -0.16216700     0.25747300    -0.00007200
H      5.65460100     2.61926300     0.00029400
H      5.81399200     0.09757100     0.00113300
H      3.09700200    -2.40381800    -0.00107500
H      3.37651400     3.63917600    -0.00040800
H      1.18761200     3.58538800    -0.00055800
H     -1.69076300     3.58995600    -0.00049600
H     -3.72306300     2.18750900    -0.00018100
H     -2.82445300    -3.60197200     0.00053000
H     -4.87260300    -2.32550200     0.00055900
H     -4.82227100     0.16731500     0.00021500
H     -1.33637000    -4.34923000     0.00029200
H      0.58568700    -5.85686700    -0.00028900
H      2.92600300    -4.79062300    -0.00107800
H      3.93038400    -1.24355900     0.00118100
