038
BNPAH_000283_PAH76   C22_H14_N01_B01  -925.83616585     0.00000000     7.64640000  4812.09834326     7.66856684   208.67233254 20133.81946820    30.45631863     0.04853523     1.32071097   127.42923715    -4.22050000    -0.15510052   -97.32704288  -407.21634743    -3.06000000    -0.11245293   -70.56527692  -295.24511862     1.16050000     0.04264759    26.76176597   111.97122881
C      9.23848300     1.93528200    -0.00000100
C      9.28582300     0.50573000    -0.00000100
C      8.12373000    -0.23079900    -0.00000000
C      6.85413500     0.41984800     0.00000000
C      5.63331400    -0.26816900     0.00000000
C      4.38966900     0.36794300     0.00000100
N      4.38178300     1.78588300     0.00000000
C      5.57084900     2.48563100     0.00000000
C      6.80689400     1.86523600     0.00000000
C      8.03951700     2.60226600    -0.00000000
C      3.19334800     2.47557500     0.00000100
C      1.95117000     1.87429000     0.00000100
B      0.65503900     2.71938900     0.00000000
C     -0.60340900     1.92731100    -0.00000000
C     -0.59057900     0.50087700    -0.00000000
C      0.65033500    -0.25119800     0.00000000
C      0.61673600    -1.68522800     0.00000000
C      1.85384900    -2.39807900     0.00000100
C      3.06120000    -1.74833300     0.00000100
C      3.12075700    -0.32033200     0.00000100
C      1.90600900     0.41979600     0.00000100
C     -0.61680900    -2.37008700    -0.00000000
C     -1.80886200    -1.64579500    -0.00000100
C     -1.79370300    -0.24987400    -0.00000100
H     10.17394800     2.49949800    -0.00000100
H     10.25482900     0.00225300    -0.00000100
H      8.15557800    -1.32310500    -0.00000000
H      5.65049700    -1.35691000     0.00000100
H      5.46186600     3.56991400     0.00000000
H      8.00588200     3.69419900    -0.00000000
H      3.30169400     3.56117000     0.00000100
H      0.72588900     3.93004000     0.00000000
H     -1.60418000     2.37676200    -0.00000000
H      1.82659400    -3.49100400     0.00000100
H      3.97731000    -2.33950100     0.00000100
H     -0.62400000    -3.46278600    -0.00000000
H     -2.76564700    -2.17484000    -0.00000100
H     -2.73927700     0.29902700    -0.00000100
