042
BNPAH_000012_PAH70   C24_H16_N01_B01 -1003.17283817     0.00300000    17.88921000  5252.72462676     8.37074952   227.77969648 21977.39983836    30.53909667     0.04866715     1.32430056   127.77558047    -4.06190000    -0.14927207   -93.66963997  -391.91377364    -3.47120000    -0.12756425   -80.04777426  -334.91988750     0.59070000     0.02170782    13.62186571    56.99388613
B      2.86746100    -0.45945000    -0.00038800
C      2.64799600    -1.96345600    -0.00013500
C      1.35301100    -2.51429700    -0.00002700
C      1.18192600    -3.94083400     0.00020700
C     -0.04817900    -4.54861800     0.00031600
C     -1.23149800    -3.75603200     0.00020700
C     -2.50292900    -4.34144300     0.00026400
C     -3.68988500    -3.60198600     0.00014800
C     -4.92904900    -4.30319400     0.00008900
C     -6.11299900    -3.62870000    -0.00012100
C     -6.11163800    -2.19739200    -0.00017800
C     -7.36444000    -1.59007000    -0.00043000
N     -7.50314500    -0.26309800    -0.00046700
C     -6.42025000     0.59697900    -0.00015100
C     -6.69957300     1.97619300    -0.00010400
C     -5.66704600     2.89746000     0.00032700
C     -4.34779800     2.41744400     0.00075000
C     -4.07635000     1.05660000     0.00067900
C     -5.09026600     0.05367100     0.00015800
C     -4.89355400    -1.40396100     0.00000500
C     -3.63451300    -2.13701300     0.00003000
C     -2.34002800    -1.57956100    -0.00010500
C     -1.12919000    -2.30667300    -0.00001800
C      0.16825200    -1.68118100    -0.00014800
C      0.34335100    -0.26327700    -0.00038800
C      1.57847200     0.36110800    -0.00050900
H      3.97125700     0.04464600    -0.00048700
H      3.46585300    -2.69685400    -0.00002400
H      2.08823200    -4.55413000     0.00029200
H     -0.13993600    -5.63780700     0.00048100
H     -2.57606500    -5.43278100     0.00037200
H     -4.90783200    -5.39554500     0.00015700
H     -7.07089900    -4.15308100    -0.00023300
H     -8.28221200    -2.17978100    -0.00061900
H     -8.43419200     0.14543600    -0.00066800
H     -7.74363100     2.30214300    -0.00038300
H     -5.87733400     3.96834200     0.00037900
H     -3.51101800     3.11867000     0.00115700
H     -2.21559200    -0.51061400    -0.00035500
H     -3.03271800     0.78185400     0.00110200
H     -0.55846700     0.36129400    -0.00048500
H      1.56295600     1.45901700    -0.00069400
