038
PAH49  C24_H14_B00_N00    -922.49945526  4944.01738536     7.87879321   214.39288359 20685.76874035    31.29124927     0.04986578     1.35691698   130.92258695    -5.18390000    -0.19050481  -119.54357484  -500.17031713    -2.16560000    -0.07958433   -49.93992277  -208.94863689     3.01830000     0.11092048    69.60365206   291.22168024     0.00000000     0.06102000
C     -7.30520700    -1.64999000    -0.00000100
C     -6.10214100    -2.32532800    -0.00000000
C     -4.86541500    -1.61967600     0.00000000
C     -4.86872400    -0.18811900     0.00000000
C     -6.12647100     0.47433000    -0.00000000
C     -7.31389200    -0.23489900    -0.00000100
C     -3.60127400     0.50611600     0.00000000
C     -2.38150500    -0.23047500     0.00000000
C     -2.40394000    -1.67389600     0.00000000
C     -3.63137500    -2.31782400     0.00000000
C     -1.13503500    -2.41881400     0.00000000
C     -1.11186700    -3.83278100     0.00000000
C      0.07837600    -4.54627800     0.00000000
C      1.30023600    -3.85651300    -0.00000000
C      1.30325600    -2.46882100    -0.00000000
C      0.10358000    -1.72010300    -0.00000000
C      0.11724300    -0.25040700    -0.00000000
C     -1.12230600     0.46500800     0.00000000
C     -1.10369700     1.89760200     0.00000000
C     -2.34523500     2.60372400     0.00000100
C     -3.53854100     1.93598000     0.00000100
C      0.12860500     2.58776700    -0.00000000
C      1.32219400     1.88327300    -0.00000000
C      1.31289000     0.48137800    -0.00000100
H     -8.24816000    -2.20180600    -0.00000100
H     -6.07969200    -3.41841100    -0.00000000
H     -6.16774300     1.56400600    -0.00000000
H     -8.26535200     0.30225600    -0.00000100
H     -3.68149500    -3.40719500     0.00000000
H     -2.04945500    -4.38883000     0.00000100
H      0.05921500    -5.63858000     0.00000100
H      2.24542900    -4.40431600    -0.00000000
H      2.26262200    -1.95122700    -0.00000100
H     -2.32527800     3.69650100     0.00000100
H     -4.46418600     2.51161400     0.00000100
H      0.12437800     3.68063200     0.00000000
H      2.27651200     2.41513400    -0.00000100
H      2.27015100    -0.03986100    -0.00000100
