36
BNPAH_01004
C      1.93960600    -1.15000900    -0.00000100
B      0.71475600    -2.01037500    -0.00000000
C     -0.64468100    -1.26244600     0.00000000
C     -1.86638200    -1.91608700     0.00000100
C     -3.12035400    -1.25723500     0.00000100
C     -4.34753700    -1.93139100     0.00000100
C     -5.57071600    -1.23402000     0.00000100
C     -6.81582400    -1.90551100     0.00000100
C     -8.02706500    -1.21413800     0.00000000
C     -8.01353900     0.24311600     0.00000000
C     -9.27247300     0.93649200    -0.00000000
C    -10.45740500     0.24777400    -0.00000100
C    -10.46948600    -1.18518400    -0.00000100
C     -9.29372400    -1.88995400    -0.00000100
C     -6.79390500     0.91743000     0.00000100
C     -5.55360900     0.22787500     0.00000100
C     -4.32266900     0.90267100     0.00000100
C     -3.09960700     0.19720400     0.00000100
C     -1.85956500     0.84369900     0.00000000
N     -0.67095100     0.17047800     0.00000000
C      0.51606200     0.86655600    -0.00000100
C      1.75729200     0.23905100    -0.00000100
H      2.96942000    -1.52009900    -0.00000100
H      0.68797100    -3.21858500    -0.00000000
H     -1.83596900    -3.00791600     0.00000100
H     -4.35465600    -3.02459100     0.00000100
H     -6.82344400    -2.99906700     0.00000000
H     -9.26478800     2.02954700    -0.00000000
H    -11.40619100     0.78976600    -0.00000100
H    -11.42632100    -1.71253200    -0.00000200
H     -9.30008800    -2.98307100    -0.00000100
H     -6.78789000     2.01095700     0.00000100
H     -4.31343000     1.99580800     0.00000100
H     -1.78434700     1.93177600     0.00000000
H      0.41098300     1.95130100    -0.00000100
H      2.61590600     0.92070900    -0.00000100
