42
BNPAH_16182
C      2.12062900    -1.51830800     0.00000200
C      0.89250700    -2.11062600     0.00000100
C     -0.34608700    -1.34796000    -0.00000000
C     -1.55841000    -2.00279000    -0.00000100
C     -2.81352300    -1.30801800    -0.00000100
C     -4.02135900    -1.98872800    -0.00000200
C     -5.26976900    -1.30337200    -0.00000200
C     -6.48648600    -1.98157100    -0.00000100
C     -7.73311900    -1.31402700    -0.00000100
C     -8.94835600    -2.01936900     0.00000000
C    -10.16375900    -1.34794600     0.00000100
C    -10.20643500     0.05335600     0.00000100
C    -11.43832800     0.76809900     0.00000200
C    -11.48715000     2.13902100     0.00000200
C    -10.26166300     2.85965900     0.00000000
C     -9.07946400     2.17303500    -0.00000000
N     -9.01238900     0.79599500    -0.00000000
C     -7.72874200     0.13908900    -0.00000100
C     -6.53907100     0.82912800    -0.00000100
C     -5.26696600     0.15638200    -0.00000200
C     -4.05886000     0.83412100    -0.00000200
C     -2.80165300     0.15486500    -0.00000200
C     -1.57515000     0.80785000    -0.00000100
C     -0.31935900     0.12512200    -0.00000000
C      0.90654400     0.79488500     0.00000100
B      2.22643400     0.03181000     0.00000200
H      2.99670700    -2.17835100     0.00000300
H      0.77861700    -3.20252300     0.00000100
H     -1.57679500    -3.09728200    -0.00000100
H     -4.02349800    -3.08263900    -0.00000200
H     -6.49092300    -3.07487000    -0.00000100
H     -8.92359800    -3.11116400     0.00000000
H    -11.11260900    -1.88405200     0.00000200
H    -12.35071300     0.16984500     0.00000300
H    -12.44294400     2.66562400     0.00000200
H    -10.23888500     3.94950100     0.00000000
H     -8.12686300     2.69211200    -0.00000100
H     -6.50018200     1.91754400    -0.00000200
H     -4.05634900     1.92794100    -0.00000200
H     -1.55736300     1.90175900    -0.00000100
H      0.85299200     1.89112200     0.00000100
H      3.29821000     0.59575000     0.00000300
