38
BNPAH_21473
C      4.69361600     2.12900400     0.00000300
C      4.90464300     0.71396000     0.00000700
C      3.88077100    -0.21052100     0.00000700
B      2.40165600     0.25568100     0.00000100
C      2.27128500     1.80743300    -0.00000200
C      3.42504200     2.65543100    -0.00000100
C      1.00931100     2.40323100    -0.00000400
C     -0.18333100     1.66574300    -0.00000300
C     -1.41418200     2.37894000    -0.00000400
C     -2.63605000     1.75689100    -0.00000200
C     -2.68117300     0.33509100     0.00000000
C     -1.45149900    -0.43635800     0.00000000
C     -1.55285300    -1.86731800     0.00000200
C     -2.82343000    -2.45491700     0.00000500
N     -3.93562600    -1.68627100     0.00000500
C     -3.90647300    -0.33662500     0.00000300
C     -0.34486200    -2.66516600     0.00000100
C     -0.41110100    -4.08305900     0.00000000
C      0.72751000    -4.86445200    -0.00000300
C      1.98469100    -4.22910000    -0.00000700
C      2.06924200    -2.84994700    -0.00000600
C      0.92578300    -2.00083100    -0.00000200
C      1.05352200    -0.54555000    -0.00000100
C     -0.17306800     0.20709600    -0.00000100
H      5.56313200     2.79284900     0.00000400
H      5.94603800     0.36867000     0.00001100
H      3.04850900    -2.39145500    -0.00001000
H      3.28773200     3.74407500    -0.00000400
H      0.92001500     3.49813400    -0.00000600
H     -1.36254300     3.47127700    -0.00000600
H     -3.56792100     2.32617000    -0.00000200
H     -2.99446300    -3.52787400     0.00000600
H     -4.83971500    -2.15127600     0.00000700
H     -4.86619900     0.17884800     0.00000300
H     -1.38101600    -4.58348200     0.00000300
H      0.65075500    -5.95408200    -0.00000300
H      2.90057400    -4.82535700    -0.00001100
H      4.24076900    -1.24309400     0.00001200
