36
BNPAH_02999
C      2.54462700     0.05286600    -0.00000200
C      2.56586400    -1.37139900    -0.00000200
C      1.38842900    -2.08468900    -0.00000100
C      0.12540700    -1.41596200     0.00000000
C     -1.09308100    -2.12337000     0.00000100
C     -2.33541500    -1.47675700     0.00000200
C     -2.34341000    -0.03246500     0.00000200
C     -3.61208500     0.63711700     0.00000200
C     -4.78359900    -0.05885900     0.00000100
C     -4.81095200    -1.50538100     0.00000100
C     -3.58838600    -2.22652600     0.00000200
B     -3.64501800    -3.76050600     0.00000200
C     -5.00533200    -4.35421400     0.00000200
N     -6.14583200    -3.58071600     0.00000100
C     -7.38204500    -4.21515900    -0.00000100
C     -8.56782300    -3.53637200    -0.00000200
C     -8.55350900    -2.12337700    -0.00000200
C     -7.33133100    -1.48609900    -0.00000100
C     -6.09249000    -2.17743100     0.00000000
C     -1.14080500     0.68102300     0.00000100
C      0.10568500     0.02700900     0.00000000
C      1.34750700     0.73297900    -0.00000100
H      3.48790800     0.60469300    -0.00000300
H      3.52477200    -1.89532100    -0.00000300
H      1.40090800    -3.17780200    -0.00000100
H     -1.06691900    -3.21356600     0.00000100
H     -3.62675800     1.73031400     0.00000200
H     -5.71293100     0.50964100     0.00000100
H     -2.68078000    -4.48414200     0.00000300
H     -5.23921800    -5.42173800     0.00000200
H     -7.32205500    -5.30276200    -0.00000000
H     -9.50049600    -4.10237300    -0.00000300
H     -9.48159100    -1.55025400    -0.00000400
H     -7.30687400    -0.39922700    -0.00000100
H     -1.16988900     1.77465000     0.00000100
H      1.33023700     1.82618600    -0.00000100
