42
BNPAH_09670
C      6.37383700    -3.21081100    -0.00000400
C      5.14213300    -3.80356400    -0.00000200
C      3.91152300    -3.03912700    -0.00000000
C      2.68076400    -3.68438400     0.00000100
C      1.45111600    -2.98317100     0.00000300
C      1.45584200    -1.53228600     0.00000300
C      2.69062900    -0.89036500     0.00000100
C      3.94117600    -1.57573200    -0.00000000
C      5.17385200    -0.90059600    -0.00000200
B      6.48927600    -1.66218300    -0.00000400
C      0.16806400    -0.83725300     0.00000300
C     -1.04870100    -1.58358700     0.00000300
C     -0.98935000    -3.00732000     0.00000400
C      0.21689400    -3.67614800     0.00000300
C     -2.32408100    -0.88280600     0.00000300
C     -3.55960600    -1.55830800     0.00000100
C     -4.76775700    -0.86326200    -0.00000000
N     -5.97381100    -1.53345900    -0.00000200
C     -7.18694500    -0.92402700    -0.00000400
C     -7.25484700     0.46777000    -0.00000400
C     -6.08180200     1.21725200    -0.00000200
C     -4.80449300     0.57904100    -0.00000000
C     -3.57831200     1.25115800     0.00000100
C     -2.34279600     0.56831700     0.00000200
C     -1.10599600     1.26343000     0.00000300
C      0.09114800     0.58136700     0.00000300
H      7.24706300    -3.87537500    -0.00000500
H      5.02830800    -4.89557400    -0.00000200
H      2.65268200    -4.77868700     0.00000100
H      2.74112700     0.20059600     0.00000100
H      5.11630600     0.19582700    -0.00000200
H      7.56463700    -1.10297200    -0.00000600
H     -1.90821100    -3.59489100     0.00000400
H      0.23091300    -4.76945700     0.00000300
H     -3.59088100    -2.64906800     0.00000100
H     -5.94080600    -2.55010700    -0.00000200
H     -8.06002500    -1.57531100    -0.00000500
H     -8.23331900     0.94895100    -0.00000600
H     -6.12650400     2.30815400    -0.00000200
H     -3.57582900     2.34382000     0.00000100
H     -1.11618700     2.35576300     0.00000300
H      1.01643200     1.15838800     0.00000400
