38
BNPAH_13551
C     -7.28756600    -1.60975100     0.00000100
C     -6.08839200    -2.29969000     0.00000100
C     -4.84783900    -1.61479400     0.00000000
C     -4.82974000    -0.19571200    -0.00000000
C     -6.06220000     0.49523100    -0.00000000
C     -7.26406600    -0.20352000     0.00000000
N     -3.57989200     0.46241200    -0.00000000
C     -2.35578100    -0.23134700    -0.00000000
C     -2.39673200    -1.68299900    -0.00000000
C     -3.61567800    -2.32057600     0.00000000
C     -1.13379400    -2.43098900    -0.00000000
C     -1.12815000    -3.84563000    -0.00000000
C      0.05553900    -4.56756500    -0.00000100
C      1.27934300    -3.88028800    -0.00000000
C      1.29289100    -2.49311900     0.00000000
C      0.10013700    -1.73244300     0.00000000
C      0.12788500    -0.25778900     0.00000000
C     -1.12948100     0.46611900    -0.00000000
C     -1.11107100     1.92684600    -0.00000000
C     -2.39627700     2.55629000    -0.00000100
C     -3.55318200     1.85483400    -0.00000100
C      0.06064000     2.67641400     0.00000000
B      1.40113900     1.98094900     0.00000100
C      1.32276200     0.45398200     0.00000100
H     -8.23835400    -2.14618000     0.00000100
H     -6.07330000    -3.39221500     0.00000100
H     -6.11148100     1.58129100    -0.00000100
H     -8.20017400     0.35903700    -0.00000000
H     -3.66838100    -3.40850400     0.00000100
H     -2.06865100    -4.39705600    -0.00000100
H      0.03040600    -5.65953700    -0.00000100
H      2.22197800    -4.43266000    -0.00000000
H      2.25353900    -1.97987600     0.00000000
H     -2.45267800     3.64661600    -0.00000100
H     -4.51544700     2.35106800    -0.00000100
H     -0.07504100     3.76519000     0.00000000
H      2.46116500     2.56521800     0.00000100
H      2.24262400    -0.13808800     0.00000100
