36
BNPAH_05039
C     -1.63029400     1.74317000    -0.00001000
C     -0.53846200     2.63614100    -0.00010900
B      0.87365200     2.10353300    -0.00014500
C      1.00209100     0.56840200    -0.00006300
C      2.25239300    -0.07308200    -0.00008000
C      2.46768700    -1.46712000    -0.00000400
C      1.23678900    -2.25744400     0.00005700
C      1.28922700    -3.67056700     0.00007000
C      2.49154600    -4.33498300     0.00001300
C      3.71653100    -3.62133600    -0.00002700
C      3.75701400    -2.17500300    -0.00000300
C      5.08028700    -1.59381000     0.00002700
C      5.38983400    -0.18969900     0.00015900
C      6.66557000     0.30082600     0.00016900
N      7.73753400    -0.55975800     0.00005400
C      7.54441100    -1.89626300    -0.00004500
C      6.26708500    -2.44694600    -0.00005000
C      6.15346100    -3.86797100    -0.00011800
C      4.90823300    -4.41804400    -0.00009100
C     -0.02954900    -1.64332900     0.00008400
C     -0.19824900    -0.25144200     0.00003300
C     -1.48442800     0.35482700     0.00005800
H     -2.65484700     2.13802200     0.00001400
H     -0.78723300     3.70481200    -0.00015700
H      1.87051200     2.80351200    -0.00022800
H      4.60988300     0.55777600     0.00027400
H      0.34937600    -4.22917200     0.00010800
H      2.52681900    -5.42671200     0.00000500
H      3.07645600     0.62891800    -0.00018100
H      6.89469900     1.36546100     0.00026800
H      8.68244800    -0.18747400     0.00005800
H      8.43737900    -2.52221700    -0.00011200
H      7.05499000    -4.48444000    -0.00017200
H      4.78658300    -5.50387200    -0.00012000
H     -0.90988600    -2.29461300     0.00013600
H     -2.36839100    -0.29008100     0.00012900
