38
BNPAH_06121
C     -5.82806200    -2.29376600    -0.00000100
N     -5.83931800    -0.92404400    -0.00000000
C     -4.70491900    -0.17981200     0.00000000
C     -3.43765800    -0.76323100     0.00000000
C     -3.38979400    -2.22282100    -0.00000000
C     -4.62387800    -2.94372400    -0.00000100
C     -2.15328700    -2.86813000    -0.00000000
C     -0.94914500    -2.14125400     0.00000000
C      0.30903200    -2.82885900     0.00000000
C      1.49322000    -2.13934300     0.00000000
C      1.51568800    -0.70451300     0.00000000
C      2.73572400    -0.02115900     0.00000000
C      2.85431000     1.40116500     0.00000000
C      4.14703000     1.99992000    -0.00000000
C      4.29170000     3.37617000    -0.00000100
C      3.14683900     4.20330400    -0.00000100
C      1.87779600     3.63508300    -0.00000000
C      1.67896700     2.23442500     0.00000000
B      0.28803200     1.54439000     0.00000100
C     -1.08482900     2.21493600     0.00000100
C     -2.22745700     1.43688400     0.00000100
C     -2.21559500     0.00899500     0.00000000
C     -0.95533300    -0.69548200     0.00000000
C      0.26851700     0.01971000     0.00000100
H     -6.79720800    -2.79079200    -0.00000100
H     -6.73207800    -0.44047500    -0.00000000
H     -4.85686700     0.89783000     0.00000000
H     -4.60807100    -4.03481000    -0.00000100
H     -2.12037300    -3.96084200    -0.00000000
H      0.30219900    -3.92215900     0.00000000
H      2.44238200    -2.68410800     0.00000000
H      3.65989000    -0.60911800     0.00000000
H      5.03032500     1.35393200    -0.00000000
H      5.28908600     3.82394300    -0.00000100
H      3.26341900     5.29062000    -0.00000100
H      1.00256600     4.29162900     0.00000000
H     -1.24213500     3.30115800     0.00000100
H     -3.20297500     1.93716800     0.00000100
