38
BNPAH_21749
C      4.69510600     2.04361700    -0.00023600
C      4.80463900     0.63698200    -0.00063600
C      3.68530400    -0.17491400    -0.00058800
C      2.33985400     0.31909200    -0.00010500
C      2.26415300     1.76634700     0.00014700
C      3.43382100     2.58508800     0.00012200
C      1.02224700     2.41746200     0.00034600
C     -0.16743300     1.71197800     0.00025100
C     -1.40643400     2.44069600     0.00031200
C     -2.60429000     1.79675200     0.00016700
C     -2.67594300     0.36463200    -0.00002600
C     -1.44653500    -0.37883500    -0.00003800
C     -1.49634600    -1.79160200    -0.00018900
N     -2.70669300    -2.41840600    -0.00035400
C     -3.93078900    -1.83563400    -0.00038500
B     -4.02483600    -0.33845300    -0.00020800
C     -0.28881300    -2.58759200    -0.00006500
C     -0.37755800    -4.00339100    -0.00006000
C      0.73451700    -4.82350400     0.00024300
C      1.99548600    -4.21852400     0.00060100
C      2.10415800    -2.83621100     0.00056400
C      0.99741300    -1.94261000     0.00014500
C      1.09375600    -0.45948300     0.00003600
C     -0.14480100     0.26574000     0.00008200
H      5.58508200     2.67656700    -0.00027500
H      5.79081100     0.16622500    -0.00101500
H      3.11310500    -2.46392400     0.00095500
H      3.28994700     3.66854600     0.00035900
H      0.99709600     3.51023900     0.00049700
H     -1.34907800     3.53241500     0.00045100
H     -3.54094800     2.35912900     0.00019100
H     -2.67151800    -3.43381700    -0.00045100
H     -4.74626400    -2.56452900    -0.00052800
H     -5.07597300     0.25390400    -0.00020800
H     -1.35087500    -4.49978800    -0.00025600
H      0.62414600    -5.90982100     0.00025900
H      2.90468300    -4.82380400     0.00092800
H      3.90889100    -1.22877900    -0.00103200
