34
BNPAH_06831
C     -1.88646200    -4.07884300    -0.00000000
C     -3.08812400    -3.37778500     0.00000000
C     -3.09579600    -1.96769900     0.00000000
C     -4.32434300    -1.22895600     0.00000000
C     -4.32422500     0.14186100     0.00000000
C     -3.11598300     0.90929400     0.00000000
B     -3.14994700     2.44964500    -0.00000000
C     -1.81604300     3.13028600    -0.00000000
C     -0.63374600     2.35475100    -0.00000000
C      0.62849400     2.97260200    -0.00000000
N      1.77343600     2.27881000    -0.00000000
C      1.83546900     0.89458300    -0.00000000
C      3.07292800     0.23924200     0.00000000
C      3.09222800    -1.15250300     0.00000000
C      1.89559100    -1.87851100    -0.00000000
C      0.64072800    -1.24878500    -0.00000000
C     -0.62416800    -1.98344500    -0.00000000
C     -0.67108100    -3.38979300    -0.00000000
C     -1.85367200    -1.25196700     0.00000000
C     -1.87717600     0.18904600     0.00000000
C     -0.63971600     0.89799300    -0.00000000
C      0.59430300     0.18696600    -0.00000000
H     -1.88755200    -5.17138600    -0.00000000
H     -4.04148200    -3.91243900     0.00000000
H     -5.26375200    -1.78900000     0.00000000
H     -5.27251800     0.68585800     0.00000000
H     -4.20853400     3.03870100    -0.00000000
H     -1.67022100     4.21784500    -0.00000000
H      0.72510200     4.06011600    -0.00000000
H      2.65444800     2.78703700     0.00000000
H      4.00074200     0.81748200     0.00000000
H      4.04707400    -1.68210100     0.00000000
H      1.95295000    -2.96713800    -0.00000000
H      0.25503000    -3.96606700    -0.00000000
