38
BNPAH_08206
C      6.87918000     0.96138700    -0.00000000
B      5.68481000     1.88504700    -0.00000000
C      4.30141200     1.17773500    -0.00000000
C      4.25348400    -0.27249300    -0.00000000
C      5.40780400    -1.04367400    -0.00000000
C      6.68065600    -0.41826800    -0.00000000
N      2.99911600    -0.86100200     0.00000000
C      1.81071000    -0.20353900     0.00000000
C      0.56855000    -0.96323200     0.00000000
C      0.53362900    -2.36839700     0.00000000
C     -0.67966300    -3.06237600     0.00000000
C     -1.88406400    -2.36558100     0.00000000
C     -1.90074400    -0.95662600    -0.00000000
C     -3.13670200    -0.22378900    -0.00000000
C     -3.14589600     1.14050000    -0.00000000
C     -1.92332700     1.89559300    -0.00000000
C     -1.93236400     3.30430900    -0.00000000
C     -0.73468200     4.01234200     0.00000000
C      0.49094000     3.33887700     0.00000000
C      0.55326300     1.93462100     0.00000000
C      1.81821000     1.20816200     0.00000000
C      3.08811900     1.85025900    -0.00000000
C     -0.67273700     1.19900600    -0.00000000
C     -0.66247800    -0.23601600    -0.00000000
H      7.91894200     1.30688300    -0.00000000
H      5.73501600     3.09535900     0.00000000
H      5.33689100    -2.13561100    -0.00000000
H      7.54633400    -1.09306100    -0.00000000
H      2.97608300    -1.87653400     0.00000000
H      1.45535200    -2.95573600     0.00000100
H     -0.67699400    -4.15440500     0.00000000
H     -2.83344400    -2.90677700     0.00000000
H     -4.07337100    -0.78665400    -0.00000000
H     -4.09184300     1.68792500    -0.00000000
H     -2.88944000     3.83144400    -0.00000000
H     -0.74544300     5.10467300     0.00000000
H      1.40979400     3.92561400     0.00000000
H      3.12551900     2.94151400     0.00000000
