42
BNPAH_18664
C      2.87985600    -0.16935700    -0.00000100
C      2.81188400    -1.56720900    -0.00000200
C      1.58088000    -2.25022800    -0.00000100
C      1.46415000    -3.67033000    -0.00000100
C      0.21543200    -4.24734700    -0.00000000
C     -0.99924600    -3.49888300     0.00000100
C     -2.23978300    -4.16720100     0.00000100
C     -3.46300500    -3.48528200     0.00000100
C     -4.71664200    -4.17697800     0.00000100
C     -5.91281400    -3.50077600     0.00000100
C     -6.04489400    -2.06045600     0.00000100
C     -7.36103900    -1.44214000     0.00000000
C     -8.57607900    -2.18149400    -0.00000100
C     -9.81061300    -1.55553000    -0.00000200
C     -9.89819100    -0.14530000    -0.00000200
C     -8.73979500     0.60774700    -0.00000100
C     -7.45992100    -0.00971800     0.00000000
C     -6.26724900     0.77344000     0.00000100
C     -5.03385200     0.16809100     0.00000200
C     -4.87680500    -1.24984200     0.00000200
B     -3.48414600    -1.94409900     0.00000200
C     -2.12840600    -1.27474400     0.00000200
C     -0.94895000    -2.04144300     0.00000100
C      0.36942500    -1.46743100     0.00000000
N      0.52060600    -0.10893900     0.00000000
C      1.69675700     0.55348600    -0.00000000
H      3.83515100     0.35543400    -0.00000200
H      3.73427400    -2.15318700    -0.00000200
H      2.37146600    -4.27694200    -0.00000200
H      0.13150700    -5.33790700    -0.00000000
H     -2.21752000    -5.26518200     0.00000100
H     -4.73515700    -5.27407300     0.00000100
H     -6.82521500    -4.09956100     0.00000100
H     -8.54652100    -3.27160300    -0.00000100
H    -10.72284000    -2.15762100    -0.00000300
H    -10.87583200     0.34320500    -0.00000300
H     -8.79033700     1.70034000    -0.00000100
H     -6.35759400     1.86370300     0.00000200
H     -4.13655000     0.79461800     0.00000300
H     -2.03322400    -0.17646300     0.00000200
H     -0.34947500     0.42519500     0.00000100
H      1.64412900     1.64200800    -0.00000000
