36
BNPAH_03200
C      2.66330800    -0.08139200     0.00000100
C      2.48717000    -1.47234300     0.00000000
C      1.24390200    -2.08990600    -0.00000000
N      0.06681700    -1.37742900    -0.00000000
C     -1.13068600    -2.05964900    -0.00000000
C     -2.36277800    -1.42966000    -0.00000100
C     -2.37835700     0.01230500    -0.00000000
C     -3.63509500     0.69368700    -0.00000100
C     -4.81113300    -0.00108000    -0.00000100
C     -4.84774200    -1.44174600    -0.00000100
C     -3.62886600    -2.16432900    -0.00000100
C     -3.66534100    -3.59137800    -0.00000100
C     -4.85103800    -4.27985800    -0.00000000
C     -6.10105700    -3.59298000    -0.00000000
C     -7.32977600    -4.30484900     0.00000000
C     -8.53863400    -3.63592100     0.00000100
C     -8.55465200    -2.22313000     0.00000100
C     -7.37069000    -1.50661300     0.00000000
C     -6.10849300    -2.16007200    -0.00000000
C     -1.15141200     0.68154000    -0.00000000
C      0.09227300     0.03911000     0.00000000
B      1.44093500     0.78553800     0.00000100
H      3.69341200     0.28930300     0.00000100
H      3.34614500    -2.15296500     0.00000000
H      1.12644700    -3.17328000    -0.00000000
H     -1.02414500    -3.14272700    -0.00000100
H     -3.63670700     1.78622400    -0.00000100
H     -5.74829100     0.55468200    -0.00000100
H     -2.73269400    -4.15701300    -0.00000100
H     -4.85178800    -5.37272600    -0.00000000
H     -7.30079600    -5.39763200     0.00000100
H     -9.47833700    -4.19311700     0.00000100
H     -9.50863400    -1.69058900     0.00000100
H     -7.42052900    -0.41753900    -0.00000000
H     -1.13480100     1.77361900     0.00000000
H      1.42478400     1.99392800     0.00000100
