38
BNPAH_12576
C      1.92504700     1.55956500     0.00000100
C      0.81825100     2.45737300     0.00000200
C     -0.50453900     2.04907900     0.00000200
B     -0.85219200     0.54430300    -0.00000000
C      0.40847000    -0.35700000    -0.00000000
C      0.26780800    -1.75558900    -0.00000100
C     -0.96985200    -2.38598800    -0.00000100
C     -2.19130500    -1.68071600    -0.00000100
C     -3.44336200    -2.43323500    -0.00000100
C     -3.47523700    -3.84714900    -0.00000000
C     -4.66059900    -4.57448500     0.00000100
C     -5.88195800    -3.90918000     0.00000100
C     -5.91591600    -2.50598200     0.00000100
C     -7.16795800    -1.80923000     0.00000100
C     -7.18252300    -0.45438300     0.00000100
C     -5.97129600     0.30944600    -0.00000000
C     -6.03579300     1.69713400    -0.00000100
C     -4.85893600     2.44889900    -0.00000200
C     -3.64888300     1.79076900    -0.00000200
C     -3.51791100     0.38089000    -0.00000100
C     -2.22827900    -0.24276700    -0.00000100
N     -4.73059200    -0.35444200    -0.00000000
C     -4.69436000    -1.76242600    -0.00000000
C      1.72375800     0.19775700     0.00000000
H      2.94000800     1.96717800     0.00000200
H      1.04864000     3.53024700     0.00000300
H     -2.72419800     2.34921700    -0.00000300
H      1.16469200    -2.38923200    -0.00000200
H     -0.97677700    -3.47483700    -0.00000200
H     -2.53539800    -4.39449200    -0.00000100
H     -4.62621000    -5.66599200     0.00000100
H     -6.82602300    -4.45787900     0.00000200
H     -8.09450300    -2.38668000     0.00000200
H     -8.11483100     0.11135700     0.00000100
H     -7.02143600     2.16256700    -0.00000000
H     -4.89175200     3.53995000    -0.00000300
H     -1.19682900     2.89873400     0.00000200
H      2.58800600    -0.47869100    -0.00000000
