38
BNPAH_30265
C      9.28017700     1.99339200     0.00000000
C      9.42540100     0.58722700     0.00000000
B      8.20948400    -0.31242500    -0.00000000
C      6.85481200     0.41067400    -0.00000000
C      5.62451000    -0.27460100    -0.00000000
C      4.37377400     0.35339300    -0.00000000
C      4.36103400     1.80947200    -0.00000000
C      5.58705100     2.52320100     0.00000000
C      6.82284800     1.87263500     0.00000000
C      8.04077000     2.62337000     0.00000000
C      3.14425900     2.50146800    -0.00000000
C      1.90377900     1.83565600    -0.00000000
C      0.67547000     2.54304000    -0.00000000
C     -0.54271500     1.88674900    -0.00000000
C     -0.57195800     0.47324300     0.00000000
C      0.63472400    -0.28772900    -0.00000000
C      0.57259800    -1.72076100     0.00000000
C      1.78749800    -2.43201900    -0.00000000
C      3.00549500    -1.76742400    -0.00000000
C      3.10526300    -0.35110200    -0.00000000
C      1.88639300     0.39236600    -0.00000000
C     -0.72039900    -2.34596600     0.00000000
C     -1.85029400    -1.58528700     0.00000000
N     -1.76303500    -0.20945100     0.00000000
H     10.17166000     2.63343000     0.00000100
H     10.45574900     0.21013800     0.00000000
H      8.26466600    -1.52541500    -0.00000000
H      5.67696400    -1.36639600    -0.00000000
H      5.54886400     3.61751800     0.00000000
H      7.97789000     3.71561800     0.00000000
H      3.15596200     3.59564400    -0.00000000
H      0.69859600     3.63561800    -0.00000000
H     -1.48040200     2.44773100    -0.00000000
H      1.76574200    -3.52435600    -0.00000000
H      3.92091800    -2.36003200    -0.00000000
H     -0.80319500    -3.43345400     0.00000000
H     -2.85925800    -1.99676400     0.00000100
H     -2.62083800     0.33348100     0.00000000
