32
BNPAH_02353
B      4.72106900    -0.36364700     0.00000000
C      4.66183500     1.16084400     0.00000000
C      3.43991700     1.81435700    -0.00000000
C      2.19295500     1.13676300    -0.00000000
C      2.17129700    -0.30719900    -0.00000000
C      3.37352500    -1.04140000    -0.00000000
C      0.88021900    -0.97503300    -0.00000000
C      0.79054300    -2.38121900    -0.00000000
C     -0.41352300    -3.06141200     0.00000000
C     -1.59435800    -2.32457200     0.00000000
C     -1.55499900    -0.93190100    -0.00000000
C     -2.77650000    -0.18789100     0.00000000
C     -2.77877600     1.16818200    -0.00000000
C     -1.54070200     1.88629600    -0.00000000
C     -1.53379000     3.28850800    -0.00000000
C     -0.31856800     3.97309800     0.00000000
C      0.87861900     3.27207900    -0.00000000
C      0.94364600     1.85275100    -0.00000000
C     -0.30588500     1.16046500    -0.00000000
N     -0.32540200    -0.24853900    -0.00000000
H      5.76082600    -0.98680800     0.00000000
H      5.55086300     1.80438300     0.00000000
H      3.42525800     2.90789200     0.00000000
H      3.30629900    -2.13262800    -0.00000000
H      1.72459600    -2.93473200    -0.00000000
H     -0.43282400    -4.15252500     0.00000000
H     -2.57368500    -2.80346600     0.00000000
H     -3.70129800    -0.76573000     0.00000000
H     -3.71454100     1.73089000     0.00000000
H     -2.48662100     3.82126300     0.00000000
H     -0.30384800     5.06527000     0.00000000
H      1.81066300     3.83391100     0.00000000
