36
BNPAH_02744
C     -2.28252200    -3.53516900     0.00000100
C     -2.26634300    -2.15516300     0.00000100
C     -1.03296900    -1.44356200    -0.00000000
C      0.20057700    -2.18303400    -0.00000100
C      0.14487200    -3.60704700    -0.00000000
C     -1.06639000    -4.26794300     0.00000100
C      1.42782300    -1.47654400    -0.00000100
C      1.50319000    -0.08639600    -0.00000100
C      0.25395900     0.62761000    -0.00000100
N      0.28711000     2.02321300    -0.00000100
C      1.43997700     2.73096500    -0.00000100
C      2.68602400     2.13762200    -0.00000100
B      3.95578100     2.99596700    -0.00000000
C      5.28912000     2.23556700     0.00000000
C      6.55161700     2.87551900     0.00000100
C      7.74108700     2.15485300     0.00000100
C      7.69660500     0.74659800     0.00000100
C      6.47774900     0.08104700    -0.00000000
C      5.25491700     0.79985700    -0.00000100
C      4.00684400     0.07720800    -0.00000100
C      2.76706000     0.67724700    -0.00000100
C     -0.96678500    -0.03089600    -0.00000000
H     -3.23517900    -4.07028600     0.00000200
H     -3.20246500    -1.59042200     0.00000100
H      1.08234800    -4.16926800    -0.00000100
H     -1.09446600    -5.36010300     0.00000100
H      2.34946500    -2.06105600    -0.00000100
H     -0.60094300     2.51466800    -0.00000000
H      1.32544800     3.81745600    -0.00000000
H      3.89045300     4.20549200     0.00000000
H      6.58084000     3.96919300     0.00000200
H      8.70443200     2.67109700     0.00000200
H      8.62771100     0.17317500     0.00000100
H      6.45396800    -1.01281800    -0.00000100
H      4.08261100    -1.01290800    -0.00000200
H     -1.89505600     0.54830200     0.00000000
