42
BNPAH_25432
C      2.30402400     2.05821600     0.00003300
C      3.32793600     1.13565600    -0.00002800
C      3.07240100    -0.26197200    -0.00003000
C      4.18501700    -1.14731600    -0.00007200
C      3.98270200    -2.49684400    -0.00005800
C      2.66836900    -3.04819200    -0.00001900
C      2.59754200    -4.49128600    -0.00000200
C      1.41490900    -5.14836400     0.00003000
C      0.19150000    -4.39650300     0.00002900
C     -0.99498000    -5.09344100     0.00004100
N     -2.23639000    -4.50335500     0.00002100
C     -3.36281000    -5.29748900     0.00003600
C     -4.64280800    -4.78257100     0.00001000
C     -5.79591800    -5.64115100     0.00002800
C     -7.05523100    -5.09479700     0.00000200
C     -7.30118600    -3.67145700    -0.00004500
C     -6.29111000    -2.74094600    -0.00006700
B     -4.83528400    -3.24185900    -0.00004000
C     -3.55117500    -2.45148800    -0.00005600
C     -2.30751900    -3.08524100    -0.00002400
C     -1.06957400    -2.37321300    -0.00003300
C      0.20171400    -2.93117200     0.00000300
C      1.50654200    -2.22509200     0.00000200
C      1.72065600    -0.77569900     0.00002000
C      0.70406000     0.22587000     0.00009700
C      0.97816300     1.58290400     0.00010200
H      2.51279300     3.13021300     0.00003600
H      4.37093100     1.46287300    -0.00007200
H      5.19397700    -0.72793300    -0.00010700
H      4.82958500    -3.18714700    -0.00007900
H      3.54066400    -5.04243400    -0.00001200
H      1.36788900    -6.23982500     0.00004600
H     -1.00413800    -6.18385800     0.00006200
H     -3.14074100    -6.36931100     0.00007000
H     -5.67732200    -6.73128900     0.00006400
H     -7.92273400    -5.76180400     0.00001600
H     -8.35254100    -3.35877300    -0.00006200
H     -6.57380700    -1.68128200    -0.00010200
H     -3.49972500    -1.35707700    -0.00008900
H     -0.34281800    -0.03865500     0.00016900
H     -1.23106700    -1.30598800    -0.00008200
H      0.14444400     2.28910600     0.00016300
