42
BNPAH_25711
C     -2.56017600    -0.53461000    -0.00000000
C     -2.68874600     0.83678100    -0.00000000
B     -1.41351300     1.69345900    -0.00000000
C     -1.28804600     3.21464700    -0.00000000
C     -0.03763600     3.83126900    -0.00000000
C      0.06539400     5.27104300    -0.00000000
C      1.25638300     5.93396900     0.00000000
C      2.49403700     5.20455200     0.00000000
C      3.71962100     5.86779100     0.00000000
C      4.95533900     5.18645000     0.00000000
C      6.18740700     5.87798900     0.00000000
C      7.41294300     5.22086100    -0.00000000
C      7.46463400     3.81581500    -0.00000000
C      8.69969100     3.09693800    -0.00000000
C      8.72511300     1.72959100    -0.00000000
N      7.54042500     1.04008200    -0.00000000
C      6.33405800     1.66474700     0.00000000
C      6.22766500     3.04861200    -0.00000000
C      4.93893000     3.73869900     0.00000000
C      3.71183400     3.08218000     0.00000000
C      2.46134800     3.74985700     0.00000000
C      1.20110700     3.05264600     0.00000000
C      1.13105000     1.63345100     0.00000000
C     -0.06814600     0.92030500    -0.00000000
C     -0.08918100    -0.51545300     0.00000000
C     -1.28188800    -1.20047200     0.00000000
H     -3.44807900    -1.18042900    -0.00000000
H     -3.70592400     1.24960100    -0.00000100
H     -2.15195200     3.89342300    -0.00000100
H     -0.87148900     5.83585100    -0.00000000
H      1.29465900     7.02626600     0.00000000
H      3.72702900     6.96147400     0.00000000
H      6.16538400     6.97106100     0.00000000
H      8.34571600     5.78850100    -0.00000000
H      9.64270100     3.64575100    -0.00000100
H      9.63660500     1.13312900    -0.00000000
H      7.56021200     0.02448200     0.00000000
H      5.46718900     1.00562300     0.00000000
H      3.69688300     1.99290800     0.00000000
H      2.06885400     1.06390100     0.00000000
H      0.85496000    -1.07750700     0.00000000
H     -1.27279500    -2.29522400     0.00000100
