42
BNPAH_16367
C      7.92984100     1.55399100     0.00006400
N      7.72625500     0.18855300     0.00002800
C      6.51195400    -0.37716100    -0.00000200
C      5.34846900     0.41287500     0.00000300
C      4.08079100    -0.19130500    -0.00002800
C      2.87180700     0.54216900    -0.00002400
C      2.90191600     1.97342100     0.00001100
B      4.24403300     2.70996700     0.00004500
C      5.50274000     1.86118100     0.00004100
C      6.82168000     2.37348600     0.00007000
C      1.62232500     2.66915100    -0.00000600
C      1.64743900     4.08894400    -0.00000700
C      0.50480800     4.86498200    -0.00005600
C     -0.73400300     4.21470000    -0.00011600
C     -0.78936000     2.82836100    -0.00010800
C      0.35501900     1.98435000    -0.00003700
C      0.32137300     0.49818700    -0.00001900
C      1.57905100    -0.17442100    -0.00004600
C      1.62949900    -1.60333800    -0.00009800
C      0.51334600    -2.38102100    -0.00010700
C     -0.77063600    -1.78164900    -0.00004000
C     -1.90075000    -2.64236200    -0.00002300
C     -3.18662400    -2.14909600     0.00007400
C     -3.34894600    -0.75213000     0.00016700
C     -2.25715600     0.10101300     0.00014400
C     -0.89763900    -0.34318800     0.00002200
H      8.96594500     1.88763100     0.00008500
H      8.54096700    -0.41970100     0.00002300
H      6.48586500    -1.46905500    -0.00002900
H      4.07664400    -1.27865200    -0.00005200
H      4.37792300     3.91065900     0.00007400
H      6.97399200     3.45545400     0.00009800
H      2.62279700     4.57008000     0.00002500
H      0.57286600     5.95558500    -0.00006000
H     -1.66711800     4.78358500    -0.00017200
H     -2.51356900     1.14704800     0.00024400
H      2.59116700    -2.10744600    -0.00013500
H      0.59109300    -3.47119500    -0.00015000
H     -1.71631100    -3.72004300    -0.00008100
H     -4.05080900    -2.81721300     0.00009200
H     -4.35143000    -0.31692300     0.00026200
H     -1.78496500     2.42056700    -0.00017700
