36
BNPAH_02215
C      5.21104400     1.36323300     0.00000000
C      5.02530900     0.00674800     0.00000000
C      3.71300000    -0.58985700     0.00000000
C      2.50091200     0.22727400    -0.00000000
C      2.61707700     1.60762000    -0.00000100
B      3.98301200     2.29167300    -0.00000000
C      1.21909100    -0.50331600    -0.00000100
C      1.20401100    -1.93173700    -0.00000000
N      2.41861800    -2.60810600    -0.00000000
C      3.60832600    -1.96754900     0.00000000
C      0.00756700    -2.64557900    -0.00000000
C     -1.23138900    -1.98247100    -0.00000000
C     -2.46642800    -2.71767700    -0.00000000
C     -3.66699400    -2.07102600    -0.00000000
C     -3.74445700    -0.63433700    -0.00000000
C     -4.99986100     0.02080800     0.00000000
C     -5.08422200     1.40374000     0.00000100
C     -3.90330400     2.17149700     0.00000000
C     -2.66222100     1.55067600    -0.00000000
C     -2.54294300     0.14038100    -0.00000000
C     -1.25381700    -0.54742600    -0.00000100
C     -0.02595500     0.13795000    -0.00000100
H      6.24519800     1.72732000     0.00000100
H      5.87349400    -0.69086700     0.00000100
H      1.69069600     2.19220400    -0.00000100
H      4.08871500     3.49772900    -0.00000000
H      2.39976500    -3.62266100     0.00000000
H      4.49343100    -2.60743100     0.00000100
H      0.02831400    -3.73945100    -0.00000000
H     -2.42362400    -3.80990500    -0.00000000
H     -4.60073300    -2.63942800     0.00000000
H     -5.90809000    -0.58782900     0.00000100
H     -6.05909700     1.89672300     0.00000100
H     -3.96137000     3.26243800     0.00000000
H     -1.76576600     2.17218400    -0.00000000
H     -0.02730900     1.22647600    -0.00000100
