42
BNPAH_29100
C      8.12951000    -3.17103500     0.00000400
C      6.88057400    -3.77777900     0.00000200
C      5.71448400    -2.98101900     0.00000000
N      4.46603200    -3.53982000    -0.00000100
C      3.27252000    -2.82549400    -0.00000200
C      2.05328400    -3.46192300    -0.00000300
C      0.80672800    -2.74776500    -0.00000300
C      0.73044000    -1.31712800    -0.00000300
B      2.05006500    -0.54441300    -0.00000400
C      3.36202300    -1.37120200    -0.00000300
C      4.61471400    -0.79320900    -0.00000200
C      5.82674000    -1.55794200    -0.00000000
C      7.11628200    -0.97719600     0.00000100
C      8.25739600    -1.76647900     0.00000400
C     -0.57700100    -0.69511900    -0.00000300
C     -1.76933400    -1.47869100    -0.00000200
C     -1.63115700    -2.89587200    -0.00000200
C     -0.39992400    -3.50718000    -0.00000300
C     -3.07433000    -0.83731500     0.00000000
C     -4.29585500    -1.56015700     0.00000200
C     -5.52095000    -0.91215500     0.00000400
C     -5.58511100     0.49747600     0.00000400
C     -4.41250400     1.23222200     0.00000200
C     -3.14761400     0.59131100     0.00000000
C     -1.93169100     1.34687700    -0.00000100
C     -0.70893700     0.73424500    -0.00000300
H      9.02549900    -3.79646600     0.00000500
H      6.79172400    -4.86729400     0.00000300
H      4.40427100    -4.55433100    -0.00000100
H      2.01423900    -4.55566800    -0.00000200
H      2.14854400     0.65929200    -0.00000400
H      4.69427100     0.29828900    -0.00000200
H      7.19518800     0.11287000     0.00000100
H      9.24794600    -1.30801100     0.00000500
H     -2.52356900    -3.52380500    -0.00000100
H     -0.33922200    -4.59919600    -0.00000300
H     -4.28251600    -2.65106200     0.00000200
H     -6.44285300    -1.49911100     0.00000500
H     -6.55417300     1.00225400     0.00000600
H     -4.44418900     2.32528500     0.00000200
H     -1.99822500     2.43845500    -0.00000100
H      0.20009200     1.33525100    -0.00000400
