42
BNPAH_18500
C      2.80928000    -0.15892400     0.00000000
C      2.71371400    -1.54347800    -0.00000000
C      1.45589400    -2.18803700    -0.00000000
C      1.37406300    -3.62963200    -0.00000100
C      0.17471200    -4.27065500    -0.00000100
C     -1.06310500    -3.53258700    -0.00000000
C     -2.28929600    -4.18890400     0.00000000
C     -3.50869600    -3.47509700     0.00000000
C     -4.74322600    -4.13950600     0.00000000
N     -5.88050200    -3.44346400     0.00000000
C     -5.99025100    -2.05998600     0.00000000
C     -7.27826700    -1.46338600     0.00000000
C     -8.48946500    -2.22323700     0.00000000
C     -9.74013400    -1.64064200     0.00000000
B     -9.89128000    -0.11192400    -0.00000000
C     -8.58640600     0.65476400    -0.00000000
C     -7.35254400    -0.01133000    -0.00000000
C     -6.10814700     0.70568300    -0.00000100
C     -4.87594600     0.09851200    -0.00000000
C     -4.76062100    -1.32214200    -0.00000000
C     -3.50855300    -2.02822400     0.00000000
C     -2.24954900    -1.38594000     0.00000000
C     -1.03894200    -2.08192200    -0.00000000
C      0.26149700    -1.40425900     0.00000000
C      0.39072200     0.00323600     0.00000100
C      1.63707200     0.61754400     0.00000100
H      3.78859800     0.32502800     0.00000000
H      3.61771400    -2.15802600    -0.00000000
H      2.30704600    -4.19873700    -0.00000100
H      0.12580100    -5.36239200    -0.00000100
H     -2.31256300    -5.28208900     0.00000000
H     -4.82804100    -5.22709000     0.00000100
H     -6.76343300    -3.95244700     0.00000100
H     -8.42974300    -3.32399500     0.00000000
H    -10.59457700    -2.32926600     0.00000000
H    -10.97682300     0.42778800    -0.00000000
H     -8.52616900     1.75097400    -0.00000100
H     -6.16188600     1.79806200    -0.00000100
H     -3.97552900     0.71359800    -0.00000100
H     -2.23096900    -0.29796700     0.00000000
H     -0.50041100     0.63225400     0.00000100
H      1.70278200     1.70784000     0.00000100
