42
BNPAH_08954
N      7.96618200     0.21926000     0.00000200
C      6.77919500    -0.43775800     0.00000100
C      5.57385600     0.25688300    -0.00000000
C      4.32365400    -0.41301800    -0.00000100
C      3.12467100     0.29655400    -0.00000200
C      1.86334800    -0.36987000    -0.00000200
C      0.65470700     0.30902200    -0.00000200
C      0.67420700     1.77095200    -0.00000200
C      1.92172900     2.42287000    -0.00000200
C      3.14761100     1.75333300    -0.00000200
C      4.40773900     2.41930400    -0.00000200
C      5.60114000     1.72182000    -0.00000100
C      6.90128900     2.34574700     0.00000100
C      8.04153500     1.60319600     0.00000200
B     -0.65345500     2.54826200    -0.00000100
C     -0.78053900     4.07430700    -0.00000100
C     -2.04588900     4.64026400     0.00000100
C     -3.21102900     3.83378600     0.00000200
C     -3.16685000     2.43540600     0.00000200
C     -1.94753500     1.72974000     0.00000000
C     -1.89265800     0.26286300     0.00000000
C     -3.07219200    -0.52152100     0.00000100
C     -3.05052300    -1.91069200     0.00000100
C     -1.82114800    -2.58205400    -0.00000000
C     -0.64477200    -1.83969800    -0.00000100
C     -0.63527300    -0.42737200    -0.00000100
H      8.82637100    -0.31886900     0.00000300
H      6.82582100    -1.52766000     0.00000100
H      4.30401900    -1.50666600    -0.00000100
H      1.89589200    -1.46029500    -0.00000200
H      1.93381900     3.51613600    -0.00000300
H      4.42237100     3.51246900    -0.00000200
H      6.97745700     3.43430400     0.00000100
H      9.04541200     2.02597900     0.00000300
H      0.07185900     4.76659000    -0.00000200
H     -2.18011700     5.72897600     0.00000100
H     -4.18924600     4.32486100     0.00000300
H     -4.12967500     1.91315400     0.00000300
H     -4.03880200    -0.01641400     0.00000200
H     -3.98871600    -2.47189500     0.00000200
H     -1.77949000    -3.67389000    -0.00000000
H      0.29786500    -2.38836700    -0.00000200
