32
BNPAH_04004
C      5.57621900    -1.90574600    -0.00000000
N      4.39451000    -2.53101900    -0.00000000
C      3.15416600    -1.93053200     0.00000000
C      3.13550400    -0.48214500     0.00000000
C      4.38414200     0.18043800    -0.00000000
C      5.59528800    -0.51012000    -0.00000000
C      1.87092300     0.20852200     0.00000000
C      1.81553000     1.63846000     0.00000000
C      0.63245500     2.32609900     0.00000000
C     -0.61854200     1.63259800     0.00000000
C     -1.85047900     2.32229600    -0.00000000
C     -3.05579400     1.62407600    -0.00000000
C     -3.06148700     0.22673200    -0.00000000
C     -1.85718100    -0.50322100     0.00000000
C     -1.84838900    -1.93919400     0.00000000
C     -0.66832400    -2.62893000     0.00000000
C      0.61155100    -1.97748000     0.00000000
B      1.89025300    -2.76953700     0.00000000
C      0.63722100    -0.53098400     0.00000000
C     -0.60494000     0.19907300     0.00000000
H      6.47231400    -2.52708300    -0.00000100
H      4.37767500    -3.55093900    -0.00000000
H      4.41896200     1.27071300     0.00000000
H      6.54881200     0.01792200    -0.00000000
H      2.74349800     2.21305400     0.00000000
H      0.62987800     3.41903600     0.00000000
H     -1.84416900     3.41546400    -0.00000000
H     -4.00209900     2.17130000    -0.00000100
H     -4.00872800    -0.31892800    -0.00000000
H     -2.80709500    -2.46529000    -0.00000000
H     -0.67926000    -3.72251700     0.00000000
H      1.95606900    -3.98195100     0.00000000
