42
BNPAH_29763
C      2.81661900     0.12093000     0.00000100
C      2.78859900    -1.30872000     0.00000100
C      1.58682400    -1.97595900    -0.00000000
C      0.34630200    -1.26218000    -0.00000000
C     -0.89441400    -1.91496300    -0.00000100
C     -2.12637500    -1.23406500    -0.00000100
C     -2.10336000     0.22917600    -0.00000000
C     -3.30454400     0.98080500    -0.00000100
B     -4.64130100     0.32863900    -0.00000100
C     -4.64664400    -1.22982900    -0.00000100
C     -5.85720000    -1.99582100    -0.00000100
C     -7.13899100    -1.33538600    -0.00000000
C     -8.32904300    -2.00942600     0.00000000
C     -8.35035600    -3.43888300     0.00000000
C     -9.52968900    -4.19729600     0.00000100
C     -9.49471100    -5.60158800     0.00000100
C     -8.26408600    -6.23323700     0.00000100
N     -7.12991500    -5.49967600     0.00000000
C     -7.08532900    -4.12044000    -0.00000000
C     -5.84415700    -3.43304000    -0.00000100
C     -4.58485300    -4.09861100    -0.00000100
C     -3.41885900    -3.37060000    -0.00000100
C     -3.39436900    -1.94504500    -0.00000100
C     -0.84031500     0.87562100     0.00000000
C      0.37293200     0.18566000     0.00000000
C      1.64847100     0.84333600     0.00000100
H      3.78012200     0.63749600     0.00000200
H      3.72880000    -1.86592300     0.00000100
H      1.56054400    -3.06981500    -0.00000100
H     -0.86911300    -3.00628500    -0.00000200
H     -3.17174700     2.06983700    -0.00000000
H     -5.66384400     0.97941100    -0.00000100
H     -7.12647100    -0.24613000    -0.00000100
H     -9.27921800    -1.47122500     0.00000000
H    -10.49036500    -3.67708300     0.00000100
H    -10.40767500    -6.19649400     0.00000200
H     -8.14060500    -7.31653800     0.00000100
H     -6.23613000    -5.98612500    -0.00000000
H     -4.51268200    -5.19128700    -0.00000200
H     -2.48055800    -3.92535300    -0.00000200
H     -0.82845400     1.96954900     0.00000100
H      1.67156000     1.93656300     0.00000200
