38
BNPAH_24336
C      4.23237800    -2.87787900     0.00000100
C      3.09593600    -3.71467000     0.00000100
C      1.81590500    -3.18918600     0.00000000
C      1.52148200    -1.78560800    -0.00000000
C      2.72031800    -0.93695000    -0.00000000
C      4.02554900    -1.51847900     0.00000000
C      2.67554200     0.47729200    -0.00000000
C      1.47466600     1.18436300    -0.00000000
C      1.40282400     2.60276400    -0.00000000
C      0.17244800     3.24383400    -0.00000000
C     -1.05832000     2.54038000    -0.00000000
C     -1.10875800     1.14600200    -0.00000000
N     -2.35072000     0.42854800    -0.00000000
C     -3.51955000     1.11899200     0.00000000
C     -4.76862600     0.51693900     0.00000100
C     -4.83208800    -0.86012300     0.00000100
C     -3.64023300    -1.62418300     0.00000000
C     -2.34469600    -0.97899300    -0.00000000
C     -1.11695400    -1.77529300    -0.00000100
C     -1.34984100    -3.17203300    -0.00000100
C     -2.60352300    -3.79218000    -0.00000100
C     -3.75340500    -3.03554000    -0.00000000
C      0.21137700    -1.15309900    -0.00000000
B      0.18877300     0.35385300    -0.00000000
H      5.24043200    -3.29815300     0.00000100
H      3.21835000    -4.80127500     0.00000100
H     -0.50036100    -3.83655100    -0.00000100
H      4.87766500    -0.83277800     0.00000000
H      3.63725600     1.00692400    -0.00000000
H      2.31893800     3.20570800    -0.00000000
H      0.13162700     4.33608400    -0.00000000
H     -1.95101700     3.17220800    -0.00000000
H     -3.42571000     2.19918200     0.00000100
H     -5.66007600     1.14502700     0.00000100
H     -5.78998500    -1.38396500     0.00000100
H      1.02472200    -3.92674100     0.00000000
H     -2.65401800    -4.88356400    -0.00000100
H     -4.74765600    -3.48541900    -0.00000000
