42
BNPAH_09130
C      2.76090900     0.42616600     0.00000200
B      2.77615800    -1.09929000     0.00000200
N      1.48642100    -1.72276200     0.00000100
C      0.27849100    -1.06084100     0.00000000
C      0.29495800     0.35367000     0.00000000
C     -0.95008200     1.04322900    -0.00000100
C     -2.14950700     0.37380800    -0.00000200
C     -2.19982400    -1.05183600    -0.00000100
C     -3.45811100    -1.77776400    -0.00000200
C     -4.71235100    -1.10029700    -0.00000200
C     -5.90346500    -1.78241900    -0.00000100
C     -5.95677200    -3.20608500    -0.00000100
C     -4.72794700    -3.92258500    -0.00000100
C     -4.77205900    -5.35616400    -0.00000200
C     -5.95679200    -6.03985500    -0.00000100
C     -7.21207300    -5.35457700    -0.00000000
C     -8.43814700    -6.06793400     0.00000100
C     -9.64938100    -5.40030300     0.00000200
C     -9.66679600    -3.98900100     0.00000200
C     -8.48157700    -3.27155600     0.00000100
C     -7.22150400    -3.92454500    -0.00000000
C     -3.47018500    -3.20194900    -0.00000200
C     -2.21414200    -3.88351400    -0.00000100
C     -1.02470300    -3.20355800    -0.00000100
C     -0.97134800    -1.77684100    -0.00000100
C      1.54662200     1.06322500     0.00000100
H      3.66767300     1.03868200     0.00000300
H      3.74455600    -1.81523200     0.00000300
H      1.42589100    -2.73584600     0.00000100
H     -0.93536800     2.13630200    -0.00000100
H     -3.07297400     0.95164100    -0.00000200
H     -4.73979700    -0.01097500    -0.00000200
H     -6.83009400    -1.20807600    -0.00000100
H     -3.84247100    -5.92482200    -0.00000200
H     -5.95835900    -7.13294300    -0.00000100
H     -8.40780600    -7.16079100     0.00000100
H    -10.58809200    -5.95928600     0.00000300
H    -10.62106500    -3.45683100     0.00000300
H     -8.53035400    -2.18205700     0.00000100
H     -2.18714200    -4.97258600    -0.00000200
H     -0.10394200    -3.79174600    -0.00000100
H      1.48025900     2.15814400     0.00000100
