18
BNPAH_00016
C     -0.00000000     1.17808800     1.48619400
B     -0.00000000     2.51231600     0.77298800
C      0.00000000     2.45289500    -0.77387000
C     -0.00000000     1.24881200    -1.43010900
C     -0.00000000    -1.22800100    -1.38664800
C     -0.00000000    -2.45692700    -0.69435800
C      0.00000000    -2.42671300     0.68560800
N     -0.00000000    -1.24450700     1.33841900
C     -0.00000000     0.01266400     0.73654700
C     -0.00000000    -0.00263000    -0.72370200
H     -0.00000000     1.06357000     2.57861400
H      0.00000000     3.56515000     1.37007700
H      0.00000000     3.35459700    -1.39846800
H      0.00000000     1.18478000    -2.52521200
H     -0.00000000    -1.22888000    -2.48039900
H      0.00000000    -3.41199000    -1.21888700
H      0.00000000    -3.32316300     1.30746800
H      0.00000000    -1.25006200     2.35573800
