32
BNPAH_03687
B      5.67437600    -2.01489900    -0.00000000
C      4.33022500    -2.69006400     0.00000000
C      3.13330500    -1.93775200     0.00000000
C      3.14554800    -0.47268500     0.00000000
C      4.39354500     0.19452000    -0.00000000
C      5.60728200    -0.48234700    -0.00000000
C      1.88172100     0.22190300     0.00000000
C      1.77935100     1.61735100    -0.00000000
N      0.59349700     2.25638800     0.00000000
C     -0.63518100     1.62121500     0.00000000
C     -1.84128800     2.33423800     0.00000000
C     -3.04390600     1.62349600    -0.00000000
C     -3.05656600     0.22453300    -0.00000000
C     -1.85910300    -0.51368300    -0.00000000
C     -1.81499100    -1.95048700    -0.00000000
C     -0.62192800    -2.61958800     0.00000000
C      0.63628300    -1.92307300     0.00000000
C      1.87390100    -2.58390200     0.00000000
C      0.62741200    -0.49766400     0.00000000
C     -0.60969600     0.19621200     0.00000000
H      6.72699900    -2.61583900    -0.00000000
H      4.18993300    -3.77899300     0.00000000
H      4.39829300     1.29167300    -0.00000000
H      6.50315600     0.15266800    -0.00000000
H      2.65522300     2.26489800     0.00000000
H      0.59713700     3.27322100     0.00000000
H     -1.83545000     3.42703400     0.00000000
H     -3.98800200     2.17261000    -0.00000000
H     -4.00934900    -0.30972900    -0.00000000
H     -2.75924300    -2.49987500    -0.00000000
H     -0.60602700    -3.71244400     0.00000000
H      1.87202200    -3.67876300     0.00000000
