38
BNPAH_12513
C      1.96952000     1.46669100    -0.00019400
B      0.82916600     2.47090200    -0.00064900
C     -0.54994200     1.84695900    -0.00057300
C     -0.82448300     0.48108800    -0.00010300
N      0.33422500    -0.34960200     0.00016700
C      0.24124500    -1.72541000     0.00038500
C     -0.94503000    -2.35763300     0.00031900
C     -2.17753500    -1.62452800     0.00013400
C     -3.40882700    -2.40832900     0.00002900
C     -3.40607100    -3.81855800    -0.00001600
C     -4.59247600    -4.55341100    -0.00016800
C     -5.82013900    -3.90067900    -0.00026500
C     -5.87743200    -2.49542900    -0.00020600
C     -7.13665200    -1.81172800    -0.00026300
C     -7.17716500    -0.45131400    -0.00013800
C     -5.97618000     0.33686700     0.00003700
C     -6.07539800     1.73763700     0.00024800
C     -4.91707200     2.49439700     0.00050500
C     -3.66254700     1.88076600     0.00047700
C     -3.46961600     0.48131700     0.00016700
C     -2.15527400    -0.21162600     0.00006800
C     -4.68821300    -0.30302400     0.00003300
C     -4.66058600    -1.73316800    -0.00006700
C      1.63494400     0.14872900     0.00015100
H      3.04111700     1.68886700    -0.00016900
H      0.98225700     3.66958600    -0.00105800
H     -2.82871600     2.56027300     0.00077100
H      1.19322500    -2.25486300     0.00055100
H     -0.93499900    -3.44279700     0.00043900
H     -2.47055300    -4.37447400     0.00004800
H     -4.54952600    -5.64494900    -0.00020800
H     -6.75307600    -4.46981400    -0.00037300
H     -8.05535400    -2.40331100    -0.00037600
H     -8.13309500     0.07837900    -0.00014500
H     -7.06175100     2.20756000     0.00026000
H     -4.96607700     3.58563200     0.00074200
H     -1.38256600     2.52840000    -0.00098000
H      2.37588100    -0.65531200     0.00042100
