42
BNPAH_15752
C      2.14087700    -1.31356900     0.00000300
C      0.96970400    -2.02804600     0.00000200
C     -0.30392900    -1.36511000     0.00000000
C     -1.51085000    -2.06695300    -0.00000100
C     -2.76341900    -1.40624200    -0.00000200
C     -3.98682900    -2.10103100    -0.00000200
C     -5.23962400    -1.45255300    -0.00000200
C     -6.46531200    -2.16652200    -0.00000200
B     -7.76946300    -1.43178600    -0.00000100
C     -9.16346800    -2.07159600     0.00000000
C    -10.29918300    -1.28304100     0.00000100
C    -10.20858000     0.13356900     0.00000100
N    -11.37623200     0.86040900     0.00000200
C    -11.46101200     2.21247900     0.00000200
C    -10.29618800     2.95210600     0.00000100
C     -9.06372600     2.27609400    -0.00000100
C     -8.96405200     0.87542600    -0.00000000
C     -7.71573200     0.12439800    -0.00000100
C     -6.47488300     0.74697200    -0.00000200
C     -5.24761500     0.01742400    -0.00000200
C     -4.02805700     0.70887400    -0.00000300
C     -2.78150400     0.05119600    -0.00000200
C     -1.55510700     0.75275500    -0.00000200
C     -0.32508600     0.09056800    -0.00000000
C      0.92519000     0.79420300     0.00000100
C      2.11913200     0.11795700     0.00000200
H      3.10148100    -1.83477900     0.00000400
H      0.98646900    -3.12134100     0.00000200
H     -1.49246400    -3.16071000    -0.00000000
H     -3.96937400    -3.19493200    -0.00000200
H     -6.38204300    -3.26097000    -0.00000200
H     -9.31990800    -3.15738900     0.00000000
H    -11.30918000    -1.71497800     0.00000300
H    -12.24055200     0.32220500     0.00000300
H    -12.46346000     2.63994000     0.00000300
H    -10.34498500     4.04113700     0.00000100
H     -8.14657700     2.86747100    -0.00000200
H     -6.37299300     1.83962800    -0.00000200
H     -4.04234400     1.80343300    -0.00000300
H     -1.57258100     1.84677500    -0.00000200
H      0.90638600     1.88759200     0.00000000
H      3.06289200     0.66895800     0.00000300
