42
BNPAH_28070
C      2.73412400     0.35986500     0.00000300
C      2.81804500    -1.05636500     0.00000200
C      1.64993500    -1.78753800     0.00000000
C      0.37463800    -1.16228200    -0.00000000
C     -0.84048500    -1.86634000    -0.00000100
C     -2.09212100    -1.24416500    -0.00000200
C     -2.09916200     0.21079000    -0.00000100
C     -3.33397400     0.92140000    -0.00000200
C     -4.52616100     0.23154000    -0.00000200
C     -4.58291000    -1.19073300    -0.00000200
C     -3.35416700    -1.95494900    -0.00000200
C     -3.45364500    -3.34921800    -0.00000200
C     -4.68896400    -4.02821000    -0.00000200
C     -4.74047100    -5.44604100    -0.00000200
C     -5.96374600    -6.09305600    -0.00000100
C     -7.19888400    -5.40555000     0.00000000
C     -8.41611800    -6.15462700     0.00000200
C     -9.66163200    -5.56177400     0.00000300
B     -9.77256600    -4.03084600     0.00000300
C     -8.45247000    -3.27971000     0.00000100
C     -7.22247200    -3.94837300    -0.00000000
C     -5.92583400    -3.26368000    -0.00000100
C     -5.81407800    -1.86920000    -0.00000200
C     -0.87867400     0.88371400    -0.00000000
N      0.32885600     0.24253100     0.00000000
C      1.51207100     0.97410300     0.00000200
H      3.63112500     0.98029200     0.00000400
H      3.78889800    -1.55320900     0.00000300
H      1.66544400    -2.87826300    -0.00000000
H     -0.76397800    -2.95327400    -0.00000200
H     -3.31933300     2.01328000    -0.00000100
H     -5.46968000     0.78334200    -0.00000200
H     -2.55034400    -3.96456400    -0.00000300
H     -3.80678800    -6.01424800    -0.00000300
H     -5.99025200    -7.18736300    -0.00000100
H     -8.30744900    -7.24765800     0.00000200
H    -10.52965600    -6.23355900     0.00000400
H    -10.84127200    -3.45533600     0.00000400
H     -8.42675800    -2.18359600     0.00000100
H     -6.72295000    -1.26532400    -0.00000100
H     -0.82618600     1.97256000     0.00000000
H      1.38161100     2.05561200     0.00000200
