42
BNPAH_27462
C      8.85050800    -1.75043800     0.00000100
C      7.66509200    -2.44128400     0.00000100
C      6.40681600    -1.77765400     0.00000000
C      5.19490300    -2.48094900     0.00000000
C      3.98579000    -1.80799200    -0.00000000
C      3.92382700    -0.40116400    -0.00000000
C      2.65372500     0.31429300    -0.00000000
C      1.41262100    -0.31975300    -0.00000000
C      0.18724000     0.38742000    -0.00000000
C      0.19696500     1.84332600    -0.00000000
C      1.44350600     2.46950500    -0.00000000
C      2.66501700     1.76095500    -0.00000000
C      3.90703000     2.42736800    -0.00000100
C      5.12249100     1.75160700    -0.00000100
C      5.15109500     0.34389600    -0.00000000
N      6.38228600    -0.37440300    -0.00000000
C      7.58759900     0.30499500    -0.00000000
C      8.79768400    -0.33228700     0.00000000
C     -1.07674700     2.56650100     0.00000000
C     -2.31477400     1.81645700     0.00000000
B     -3.67189300     2.54680200     0.00000000
C     -3.60693000     4.06435800     0.00000100
C     -2.35955600     4.68189600     0.00000100
C     -1.13789900     3.96919100     0.00000000
C     -2.24365300     0.40574300    -0.00000000
C     -1.04766400    -0.30198500    -0.00000000
H      9.80777500    -2.27382400     0.00000100
H      7.64284200    -3.53197800     0.00000100
H      5.23724000    -3.57007600     0.00000000
H      3.06181800    -2.38512500    -0.00000000
H      1.34583200    -1.40988200    -0.00000000
H      1.50084300     3.55951600    -0.00000000
H      3.91517500     3.52014000    -0.00000100
H      6.03081300     2.34926500    -0.00000100
H      7.52310500     1.38675200    -0.00000000
H      9.70568400     0.27134100     0.00000000
H     -4.70598700     1.91013200     0.00000000
H     -4.48630800     4.72001400     0.00000100
H     -2.28537100     5.77754100     0.00000100
H     -0.21506800     4.55477400     0.00000100
H     -3.18704200    -0.14943400    -0.00000000
H     -1.04341000    -1.39557000    -0.00000100
