36
BNPAH_02988
C      2.54667100     0.04080000     0.00000200
N      2.51768200    -1.33697200     0.00000200
C      1.36396600    -2.04321900     0.00000000
C      0.12492900    -1.39522900    -0.00000100
C     -1.08884200    -2.11540900    -0.00000200
C     -2.33661800    -1.48103500    -0.00000200
C     -2.33883700    -0.02048700    -0.00000200
C     -3.58625100     0.64056500    -0.00000200
C     -4.76446600    -0.08181700    -0.00000200
C     -4.81100100    -1.50399400    -0.00000100
C     -3.57717300    -2.23860400    -0.00000200
B     -3.61129200    -3.77390600    -0.00000200
C     -4.97193500    -4.40332600    -0.00000100
C     -6.15633900    -3.62860100    -0.00000000
C     -7.44209100    -4.25946100     0.00000100
C     -8.61407400    -3.53456900     0.00000200
C     -8.55741300    -2.12078500     0.00000200
C     -7.33240700    -1.47526300     0.00000100
C     -6.10018100    -2.18235400    -0.00000000
C     -1.12280300     0.70330100    -0.00000100
C      0.10991500     0.06281100    -0.00000000
C      1.37202300     0.74062300     0.00000100
H      3.53389700     0.50064500     0.00000300
H      3.39836200    -1.84289400     0.00000200
H      1.45445100    -3.13006600     0.00000000
H     -1.06232200    -3.20578200    -0.00000200
H     -3.61197300     1.73327000    -0.00000200
H     -5.69643600     0.48458600    -0.00000100
H     -2.60579500    -4.45479600    -0.00000200
H     -5.12674600    -5.49020100    -0.00000100
H     -7.46970000    -5.35282500     0.00000100
H     -9.58141600    -4.04400700     0.00000300
H     -9.47961400    -1.53420400     0.00000300
H     -7.33548400    -0.38427600     0.00000000
H     -1.16168300     1.79609400    -0.00000100
H      1.40371500     1.83139900     0.00000200
