32
BNPAH_02350
B      4.73702000    -0.27958400     0.00000000
C      4.65510900     1.25077600    -0.00000000
C      3.42224000     1.85651600    -0.00000000
C      2.17885900     1.13582800    -0.00000000
C      2.18301700    -0.31972800     0.00000000
C      3.39750700    -1.00030300     0.00000000
C      0.88087600    -1.02048600    -0.00000000
C      0.78480500    -2.41929300    -0.00000000
C     -0.45062100    -3.08491000    -0.00000000
C     -1.64016000    -2.37100700    -0.00000000
C     -1.60798400    -0.95962600    -0.00000000
C     -2.81043700    -0.18609400    -0.00000000
C     -2.78153900     1.18544500     0.00000000
C     -1.53767800     1.88547600     0.00000000
C     -1.48127400     3.31683400     0.00000000
C     -0.26297500     3.93129100     0.00000000
N      0.88637200     3.19721200    -0.00000000
C      0.94310900     1.81963900    -0.00000000
C     -0.32836600     1.14361600     0.00000000
C     -0.34444600    -0.28280100     0.00000000
H      5.79075800    -0.87713300     0.00000000
H      5.53025000     1.91154700    -0.00000000
H      3.38663600     2.95612100    -0.00000000
H      3.35393300    -2.09407200     0.00000000
H      1.69675500    -3.01611300    -0.00000000
H     -0.46819700    -4.17727900    -0.00000000
H     -2.60422100    -2.88535600    -0.00000000
H     -3.76751500    -0.71426600    -0.00000000
H     -3.70964700     1.76168500     0.00000000
H     -2.39567300     3.91008300     0.00000000
H     -0.13401600     5.01408300     0.00000000
H      1.77431300     3.69015000    -0.00000000
