42
BNPAH_26789
C      2.85733800    -0.56501900    -0.00000700
C      2.69389500    -1.94150700    -0.00000200
C      1.40573000    -2.52883600     0.00000000
C      1.25414200    -3.96103700     0.00000500
C      0.02070600    -4.54017900     0.00000700
C     -1.17718000    -3.74317000     0.00000400
C     -2.44619400    -4.33755400     0.00000500
C     -3.63372100    -3.58758000     0.00000200
C     -4.89639800    -4.28400100     0.00000100
C     -6.10801900    -3.64550900    -0.00000300
C     -6.20877500    -2.21474600    -0.00000400
C     -7.49502900    -1.60451900    -0.00000900
C     -7.68176900    -0.23563400    -0.00000900
C     -6.57650100     0.65972600    -0.00000300
C     -6.76992200     2.05886700    -0.00000000
C     -5.70067400     2.95143700     0.00000800
C     -4.40760600     2.43165600     0.00001400
N     -4.23520200     1.10153100     0.00001100
C     -5.21990600     0.13970800     0.00000200
B     -4.93602800    -1.37766100    -0.00000100
C     -3.56988000    -2.13934800    -0.00000000
C     -2.27946300    -1.57710400    -0.00000200
C     -1.07918600    -2.31101500    -0.00000000
C      0.24547400    -1.69164500    -0.00000300
C      0.44834600    -0.29053200    -0.00000800
C      1.72052900     0.26533800    -0.00001000
H      3.85842100    -0.12736200    -0.00000900
H      3.56713000    -2.59966800     0.00000000
H      2.15769500    -4.57645000     0.00000700
H     -0.08240300    -5.62858000     0.00001100
H     -2.51117800    -5.43004200     0.00000700
H     -4.86162100    -5.37752900     0.00000300
H     -7.02466800    -4.24815600    -0.00000500
H     -8.38464200    -2.24702300    -0.00001200
H     -8.68866400     0.18879400    -0.00001200
H     -7.79340300     2.44421800    -0.00000400
H     -5.85182100     4.03098800     0.00001000
H     -3.50658600     3.04587900     0.00002100
H     -2.16250900    -0.48995100    -0.00000800
H     -3.27982700     0.74989600     0.00001700
H     -0.41187900     0.38143800    -0.00001000
H      1.83778900     1.35191000    -0.00001400
