42
BNPAH_16825
C      7.83844200     1.71967300     0.00001200
C      7.83103900     0.32954600     0.00000700
C      6.61002000    -0.35025200     0.00000200
C      5.38230300     0.35493600     0.00000100
C      4.11777400    -0.25708000    -0.00000500
C      2.90598400     0.45434200    -0.00000500
C      2.98518100     1.90714500    -0.00000000
C      4.24887400     2.53090900     0.00000500
C      5.42529700     1.79386900     0.00000500
N      6.66627900     2.39652300     0.00001100
C      1.76415500     2.67561300    -0.00000300
C      1.80379600     4.09865100    -0.00000300
C      0.65672700     4.86397400    -0.00000900
C     -0.59151200     4.20791800    -0.00001600
C     -0.65585400     2.82809100    -0.00001500
C      0.49756200     1.99284700    -0.00000600
C      0.38046800     0.53802500    -0.00000400
C      1.60367600    -0.20927900    -0.00000800
C      1.59690700    -1.64109000    -0.00001600
C      0.45172100    -2.40645800    -0.00001700
C     -0.83409400    -1.82143400    -0.00000600
C     -1.97459900    -2.66936900    -0.00000300
C     -3.25366100    -2.14959700     0.00001100
C     -3.47591800    -0.74043300     0.00002500
C     -2.45428200     0.18946600     0.00002300
B     -0.97080500    -0.26920400     0.00000400
H      8.74756500     2.32044900     0.00001600
H      8.77953100    -0.20756700     0.00000800
H      6.59256400    -1.44237500    -0.00000200
H      4.11123400    -1.34502400    -0.00000700
H      4.32185500     3.61864400     0.00000800
H      6.69062300     3.41377000     0.00001400
H      2.76459100     4.61457300     0.00000000
H      0.71702900     5.95460700    -0.00001000
H     -1.51685000     4.78982300    -0.00002300
H     -2.82201500     1.21988800     0.00003800
H      2.54463400    -2.17828400    -0.00002300
H      0.55448800    -3.49954700    -0.00002400
H     -1.83450700    -3.75810100    -0.00001200
H     -4.11690300    -2.82205400     0.00001400
H     -4.51925300    -0.40083500     0.00003900
H     -1.62777500     2.35474200    -0.00002300
