42
BNPAH_19780
C      2.15046500     3.52026400    -0.00000100
C      2.15443200     2.13268900    -0.00000100
C      0.95578200     1.38106000    -0.00000000
C     -0.28436600     2.08121800     0.00000000
C     -0.26129100     3.49610600    -0.00000000
C      0.92809700     4.20997100    -0.00000100
C     -1.54786300     1.33544800     0.00000000
C     -1.53400100    -0.09545000     0.00000000
C     -2.76231900    -0.77314100     0.00000000
C     -4.01090200    -0.13008000     0.00000000
C     -4.02000900     1.30736700     0.00000100
C     -5.25339100     2.07360500     0.00000100
C     -6.49348000     1.50404400     0.00000100
B     -6.58763900    -0.03287600     0.00000100
C     -7.85563400    -0.85835300     0.00000000
N     -7.76287100    -2.20853600    -0.00000100
C     -6.59265900    -2.90699900    -0.00000100
C     -5.37272300    -2.25059200    -0.00000100
C     -5.28448500    -0.84182600    -0.00000000
C     -2.79131800     1.98449100     0.00000100
C     -0.25366400    -0.81490400     0.00000000
C     -0.19702800    -2.22887100     0.00000100
C      1.00802800    -2.91629400     0.00000100
C      2.21476900    -2.19994700     0.00000100
C      2.18661400    -0.81276000     0.00000100
C      0.97136700    -0.08814100     0.00000000
H      3.09557100     4.06835100    -0.00000200
H      3.11520600     1.61792500    -0.00000100
H     -1.19982600     4.05036100    -0.00000000
H      0.90862300     5.30234200    -0.00000100
H     -2.75309700    -1.86206400     0.00000000
H     -5.13041200     3.16403700     0.00000100
H     -7.36280600     2.17261700     0.00000100
H     -8.88757800    -0.49448500     0.00000000
H     -8.61877900    -2.76062900    -0.00000100
H     -6.68596600    -3.99269100    -0.00000200
H     -4.48538400    -2.89051900    -0.00000200
H     -2.83039400     3.07465900     0.00000100
H     -1.12185000    -2.80593300     0.00000100
H      1.01280400    -4.00890300     0.00000100
H      3.17200500    -2.72655100     0.00000100
H      3.13527100    -0.27600100     0.00000000
