42
BNPAH_27904
C      2.77939200     0.51861400    -0.00000200
C      2.87354600    -0.89962200    -0.00000200
C      1.73257400    -1.67350300    -0.00000100
C      0.43997500    -1.07062700    -0.00000000
C     -0.74704600    -1.83898700     0.00000100
C     -2.01864500    -1.26912300     0.00000100
C     -2.07884300     0.16659500     0.00000100
N     -3.33415000     0.77089400     0.00000200
C     -4.48666400     0.06993800     0.00000200
C     -4.52097100    -1.31448600     0.00000200
C     -3.26354000    -2.06342300     0.00000200
C     -3.31200900    -3.44319300     0.00000200
B     -4.65008000    -4.18678600     0.00000200
C     -4.82878200    -5.71788900     0.00000200
C     -6.09242800    -6.23240700     0.00000100
C     -7.30520000    -5.42500600    -0.00000000
C     -8.55992700    -6.07460700    -0.00000100
C     -9.75159900    -5.35824600    -0.00000300
C     -9.71079900    -3.95483400    -0.00000200
C     -8.48542800    -3.29475900    -0.00000100
C     -7.25882600    -3.99491900     0.00000000
C     -5.94698900    -3.33320400     0.00000100
C     -5.80090100    -1.96039300     0.00000100
C     -0.93513200     0.95445600     0.00000000
C      0.34813200     0.36616400    -0.00000000
C      1.54704500     1.13694100    -0.00000100
H      3.69197100     1.11948000    -0.00000300
H      3.85744000    -1.37438200    -0.00000300
H      1.80236600    -2.76426000    -0.00000100
H     -0.65474400    -2.92622300     0.00000100
H     -3.37155700     1.78505800     0.00000200
H     -5.40390100     0.66270400     0.00000200
H     -2.36123200    -3.98826200     0.00000300
H     -3.99184600    -6.42718600     0.00000300
H     -6.25810700    -7.31786300     0.00000100
H     -8.58079600    -7.16836000    -0.00000200
H    -10.71034700    -5.88266600    -0.00000400
H    -10.63953000    -3.37828400    -0.00000300
H     -8.48076600    -2.20231700    -0.00000100
H     -6.66763000    -1.28756800     0.00000100
H     -1.02655400     2.04477200     0.00000000
H      1.47409700     2.22775100    -0.00000100
