38
BNPAH_13566
C     -7.30388700    -1.64774900    -0.00000100
C     -6.09819000    -2.32148600    -0.00000100
C     -4.86508000    -1.61327800    -0.00000000
C     -4.86820100    -0.18477200     0.00000000
C     -6.12412300     0.47646800     0.00000000
C     -7.31258300    -0.23455300    -0.00000000
C     -3.59537000     0.50897800     0.00000000
C     -2.36918700    -0.22361200     0.00000000
C     -2.39940400    -1.66902000    -0.00000000
C     -3.62574200    -2.30848100    -0.00000000
C     -1.13371900    -2.42215600    -0.00000000
C     -1.12319900    -3.83607900     0.00000000
C      0.06101200    -4.55991300     0.00000100
C      1.28806400    -3.88098900     0.00000000
C      1.30089300    -2.49299700    -0.00000000
C      0.10890200    -1.73455900    -0.00000000
C      0.15279300    -0.25626400    -0.00000000
C     -1.10909100     0.46409200     0.00000000
C     -1.10801400     1.88443900     0.00000000
C     -2.33322600     2.59648900     0.00000100
C     -3.53276100     1.92888200     0.00000100
N      0.07722300     2.57814800    -0.00000000
B      1.36805500     1.96544700    -0.00000100
C      1.34684100     0.45135200    -0.00000100
H     -8.24615200    -2.20059800    -0.00000100
H     -6.07371300    -3.41454500    -0.00000100
H     -6.16788200     1.56625200     0.00000100
H     -8.26396100     0.30282100    -0.00000000
H     -3.67618200    -3.39777600    -0.00000000
H     -2.06477200    -4.38511500     0.00000100
H      0.03180700    -5.65205900     0.00000100
H      2.22890600    -4.43610400     0.00000100
H      2.26233100    -1.98020700    -0.00000000
H     -2.30914800     3.68976400     0.00000100
H     -4.45440300     2.51076600     0.00000100
H     -0.02497000     3.58973200    -0.00000000
H      2.34178800     2.67342900    -0.00000100
H      2.28104600    -0.11357700    -0.00000100
