      17
Molecule_2845_b3lyp.xyz
C     -0.23129581     1.56984109     0.17203213
C      0.17408149     0.11633966    -0.10044816
C      0.82852243    -0.52269473     1.10978781
C      0.03523932    -1.23430654     2.15279746
C      0.99807575    -2.03529617     1.27918289
C      0.44163056    -2.99209966     0.29917093
O      0.98359775    -4.01835778    -0.03378762
H      0.63912472     2.17916494     0.43889993
H     -0.69604956     2.02101600    -0.70966691
H     -0.94531164     1.63150083     0.99982667
H     -0.71090232    -0.45556157    -0.40006885
H      0.86528594     0.08012054    -0.95175651
H      1.68904581     0.03236734     1.47724339
H      0.29130786    -1.12690950     3.20046613
H     -1.02465368    -1.38095419     1.96387335
H      1.92542179    -2.37255477     1.72950160
H     -0.55227097    -2.71213362    -0.11995416
