      17
Molecule_6266_b3lyp.xyz
C      0.53084636     0.45725612    -0.76440163
N     -0.40475277    -0.28601634     0.06765634
C      0.20567334    -0.72351123     1.31307749
C     -1.64300797     0.43668503     0.27753717
C     -2.51382384     0.52010427    -0.97593343
O     -3.15173694     1.51187025    -1.25253282
C     -2.57915874    -0.67710675    -1.79841592
C     -2.68031699    -1.65137645    -2.49805578
H      1.40906031    -0.16132556    -0.97141160
H      0.06595139     0.71000212    -1.72196793
H      0.87464360     1.39734036    -0.29293947
H      0.52307321     0.11302313     1.96419046
H     -0.49911529    -1.34349882     1.87560530
H      1.08990077    -1.32962005     1.09267645
H     -2.23915291    -0.10444974     1.02510690
H     -1.51289870     1.46918183     0.64895324
H     -2.76653912    -2.51247933    -3.11519786
