      18
Molecule_18804_b3lyp.xyz
C      0.03351591     1.52072185    -0.19338863
C      1.53260989     1.45832670     0.05251634
C      1.28905036     0.13095222     0.81042919
C      2.49286237    -0.43715428     0.07576139
N      2.31647397     0.62666057    -0.97664432
C      1.39623411     0.07038377    -1.98616636
C      0.18438349    -0.60655460    -1.27212013
N     -0.03731393     0.03351470     0.03806297
H     -0.48366255     2.05621957     0.61052021
H     -0.35702024     1.86660490    -1.15559346
H      2.10848065     2.31516740     0.41081472
H      1.14539922     0.01434388     1.88743764
H      3.42038629    -0.26987535     0.63452644
H      2.48322981    -1.46838749    -0.29092141
H      1.07467910     0.87888728    -2.64930997
H      1.95022968    -0.64495154    -2.60384603
H     -0.73353748    -0.51448935    -1.86295803
H      0.35366639    -1.67584259    -1.11463550
