      12
Molecule_3853_b3lyp.xyz
N      0.11417847     1.43627302     0.07885080
C      0.01429030     0.05341497     0.01124353
C     -1.09509854    -0.76967252    -0.00012922
N     -2.43623775    -0.32255890    -0.02876845
N     -0.67158188    -2.06613556     0.00323890
N      0.62535567    -2.10527988     0.00893460
N      1.05475318    -0.80917320     0.03031447
H      0.76926363     1.83695919    -0.58213047
H     -0.80476033     1.84411144    -0.05728279
H     -2.89370827    -0.47155943     0.86657516
H     -2.96897840    -0.84830846    -0.71498132
H      2.04166028    -0.61513399     0.07377898
