      15
Molecule_15961_b3lyp.xyz
N     -0.39974325    -0.90168325    -0.78925722
C     -0.24247594     0.17704188    -0.40292849
C     -0.00600452     1.51985743     0.09376615
C      0.05213946     1.75105803     1.64329770
C      1.29246775     2.67036985     1.44186949
C      1.43312881     2.08572520     0.03598017
C      2.59708247     1.50500489    -0.62964273
O      1.98535147     2.73023798    -1.07983504
H     -0.69890811     2.21865110    -0.38487445
H     -0.83686062     2.19890335     2.08649002
H      0.29588924     0.83014071     2.17447886
H      1.02435329     3.73004118     1.40459056
H      2.13260879     2.53925464     2.12579857
H      3.58298177     1.61688581    -0.18181445
H      2.46907873     0.65128743    -1.29224391
