      18
Molecule_19734_b3lyp.xyz
C     -0.03175410     1.57337158     0.04130024
C      1.51469367     1.42554958     0.00466423
C      1.78303244     0.78631821     1.38073480
C      0.83904659    -0.45026528     1.23074792
C      1.67563791    -1.56211412     0.58955941
O      2.10259459    -0.97959785    -0.65548161
C      1.26225897     0.13774787    -0.86831634
C     -0.00676465     0.02939458     0.01003143
H     -0.47094766     2.07407548     0.90811743
H     -0.44670895     1.99311602    -0.87876383
H      2.16620564     2.23723927    -0.31901097
H      2.82554549     0.49117592     1.52703140
H      1.49472589     1.45071449     2.20039546
H      0.29316876    -0.74777341     2.12650965
H      2.55913806    -1.83300946     1.17787617
H      1.09072306    -2.47415280     0.39626927
H      1.13455971     0.31699112    -1.93611666
H     -0.86722892    -0.57837102    -0.27026186
