      17
Molecule_7414_b3lyp.xyz
C      0.07694205     1.40454562    -0.02857877
N      0.08285068    -0.05946402    -0.00298485
C      0.18028958    -0.74185716     1.24045165
C     -0.13142768     0.07996390     2.48637161
O      0.49096729    -1.90127763     1.32295773
C     -0.11122883    -0.78244578    -1.20797815
C     -0.05712869     0.03395171    -2.49343282
O     -0.32567500    -1.96729859    -1.23372159
H      0.53772716     1.79547013     0.87595591
H      0.66543924     1.77322850    -0.86872642
H     -0.93571115     1.81933739    -0.10671245
H     -1.00790660     0.72224680     2.36570491
H     -0.30065741    -0.62955140     3.29597698
H      0.71650623     0.71455529     2.76587605
H      0.92537116     0.49499099    -2.63838460
H     -0.25035373    -0.65689325    -3.31301833
H     -0.80503433     0.83233538    -2.51265734
