      14
Molecule_2636_b3lyp.xyz
N     -0.11218770     1.31084466    -0.22884050
C     -0.04336505     0.06953119    -0.01914632
O     -1.15487235    -0.68992378    -0.11100542
C     -0.97586497    -2.09700329     0.02651138
C     -2.35697251    -2.72133840     0.20867394
C     -2.31200231    -4.23062963     0.10469794
O     -2.72410342    -4.98862765     0.94242212
H      0.80318021     1.73725421    -0.10152219
H      0.85672530    -0.49979689     0.25283780
H     -0.48574821    -2.50011852    -0.87140874
H     -0.33527124    -2.31840685     0.89037366
H     -2.79959979    -2.43444075     1.16488416
H     -3.00105777    -2.34821811    -0.59944737
H     -1.86097504    -4.61289114    -0.84147368
