      16
Molecule_21265_b3lyp.xyz
C     -0.00232581     1.40778271     0.07581920
O      0.01158430    -0.00496204     0.04232477
C      0.60562022    -0.55294903    -1.04679927
C      1.20588846     0.03973546    -2.14055228
N      1.62832150    -0.99683245    -2.91846490
N      1.34139619    -2.20268902    -2.40130183
C      0.71416358    -1.95193602    -1.25347046
C      0.22322445    -3.04520756    -0.36251110
H      1.01787415     1.81676721     0.07481030
H     -0.54968074     1.82166296    -0.78277426
H     -0.50646141     1.69835235     0.99898168
H      1.36158417     1.06802178    -2.41893431
H      2.10939911    -0.94488396    -3.79863428
H      0.68435650    -2.98968756     0.62974833
H     -0.86056702    -2.98386134    -0.21444398
H      0.46065063    -4.01544328    -0.80365455
