      16
Molecule_4171_b3lyp.xyz
O     -0.10868555     1.28178395     0.22837577
N     -0.02710504    -0.11727382     0.33245688
C     -1.11634456    -0.67038226    -0.00370903
C     -2.50833435    -0.24028038    -0.43318010
C     -2.95379782    -1.73880604    -0.30856580
C     -1.49312796    -2.11477673     0.00456226
C     -0.65871188    -3.25302574    -0.45975635
N     -1.05016712    -3.13559499     0.95175041
H      0.76562786     1.56013622     0.52132804
H     -2.99525503     0.46753321     0.24210590
H     -2.54706468     0.16942860    -1.44631601
H     -3.62867922    -1.92925511     0.52824659
H     -3.37116044    -2.18187072    -1.21477106
H     -1.12834416    -4.07358980    -0.99641679
H      0.36749602    -3.03681027    -0.74500550
H     -0.27639021    -2.76352626     1.49954594
