      13
Molecule_16481_b3lyp.xyz
O     -0.15474675     1.34638861     0.04100899
C      0.04590186    -0.00533703     0.05267060
C     -0.08101208    -0.89898098    -1.23516283
C      0.62306973    -2.20419623    -0.88778365
N      0.00377325    -2.09202268     0.50414571
C     -1.00065324    -1.09871581    -0.08459997
C      0.74694002    -0.89933345     1.02733718
O      1.50128987    -0.80900070     1.94031759
H      0.58175842     1.77143586    -0.41293504
H     -0.28077305    -0.41888431    -2.18698166
H      0.21940812    -3.07443305    -1.41143522
H      1.71791037    -2.24196784    -0.88454898
H     -2.06356805    -1.08502487     0.10073365
