      18
Molecule_7150_b3lyp.xyz
C      0.06801394     1.40570395    -0.09272620
O      0.13426025     0.00666802     0.05890360
C      0.53864295    -0.64584696    -1.10384683
C      0.52391876    -2.15954409    -0.89236830
O     -0.00894184    -2.68792437     0.04429997
C      1.25323573    -2.93526849    -1.98888822
O      0.94815817    -4.29202011    -1.90317871
C      1.63877926    -5.06996769    -2.85319471
H      1.04812611     1.83750723    -0.35099371
H     -0.65228501     1.69799797    -0.87320902
H     -0.25924015     1.81823062     0.86405036
H     -0.13372292    -0.42248687    -1.95483533
H      1.54948223    -0.33131017    -1.42556135
H      0.98626372    -2.51183755    -2.97565031
H      2.33754682    -2.74956315    -1.86253808
H      2.73045280    -4.99397351    -2.72712042
H      1.33580962    -6.10809840    -2.70093679
H      1.39085792    -4.77349784    -3.88489827
