      18
Molecule_19158_b3lyp.xyz
C      0.29364976     1.49714542     0.26465466
O     -0.03563445     0.14688328     0.03440486
C      0.49596728    -0.48237341    -1.10255664
C      0.19340441    -0.01191106    -2.49723282
C      1.60370648     0.09997468    -1.94140379
C      0.52548688    -1.95802344    -0.82168039
C     -0.55836990    -2.85369669    -1.23929550
O      0.69087771    -2.82278909    -1.94136080
H      1.36777701     1.63634608     0.44807718
H     -0.00964779     2.15495143    -0.56292937
H     -0.25665560     1.79784989     1.15937592
H      0.00495411    -0.76459839    -3.25370807
H     -0.37328152     0.90648516    -2.60520393
H      1.97610119     1.09161797    -1.71473432
H      2.35395212    -0.58661704    -2.31810286
H      1.10999266    -2.23147157     0.05770503
H     -0.75262880    -3.76683460    -0.67978039
H     -1.40580762    -2.44265063    -1.78425997
