      18
Molecule_20882_b3lyp.xyz
C     -0.00155460     1.53080707    -0.02559838
C      0.15307304     0.00907197    -0.06703756
C      0.61808002    -0.55931810     1.27802082
N      0.74103352    -2.00653828     1.26627738
C      1.87283695    -2.74955549     1.18641683
C      1.48376033    -4.07293187     1.14542149
C      0.07702481    -4.02152142     1.20376245
N     -0.37039838    -2.76943479     1.27473803
H      0.94642075     2.02402280     0.21776879
H     -0.33753860     1.91734773    -0.99191320
H     -0.73632840     1.83558483     0.72769336
H     -0.79797620    -0.46621930    -0.32758271
H      0.87322770    -0.27859603    -0.84236084
H      1.59442577    -0.14916800     1.55528846
H     -0.09257657    -0.29234960     2.06653704
H      2.84689943    -2.28602492     1.17128304
H      2.12153802    -4.93998258     1.09086406
H     -0.62744546    -4.84056762     1.20402894
