      15
Molecule_20573_b3lyp.xyz
C      0.17337674     1.52630472     0.18322865
C     -0.08689550     0.02782902    -0.02174284
O     -1.47428404    -0.23808215    -0.11740087
C      0.64993648    -0.49007786    -1.22607762
N      0.00173615    -0.94876311    -2.28516512
N      1.01239935    -1.27861733    -3.12528471
C      2.19840150    -1.01197079    -2.54496990
N      2.01092150    -0.50948550    -1.34129180
H      1.24271387     1.71882378     0.30756706
H     -0.19036759     2.09535799    -0.67810328
H     -0.35874344     1.86859922     1.07452360
H      0.29527046    -0.51066272     0.85706946
H     -1.66647945    -0.44837545    -1.03896863
H      0.81010857    -1.67257990    -4.02929641
H      3.14732049    -1.19801801    -3.02558480
