      20
Molecule_13531_b3lyp.xyz
C     -0.21423355     1.43982828     0.08659807
C      0.08094359    -0.06025794    -0.12313141
C      0.82691628    -0.27692921    -1.36485203
C      1.45737249    -0.43769329    -2.37617388
C      0.83019770    -0.64292266     1.07181723
C      0.08302765    -1.09015853     2.30619094
C      0.79008252    -2.10717577     1.43984736
C      0.01553134    -3.13823793     0.64708776
H      0.71771276     2.00406504     0.18790449
H     -0.76886385     1.85168648    -0.76061798
H     -0.80386597     1.58194237     0.99691660
H     -0.88233770    -0.57800339    -0.21478096
H      2.00654344    -0.58857251    -3.27222663
H      1.78270737    -0.14789712     1.24462432
H      0.48735430    -0.84670534     3.28271287
H     -1.00286042    -1.07560373     2.26324987
H      1.72448267    -2.48851230     1.84427544
H     -0.95361742    -2.75719784     0.31187772
H      0.57090643    -3.45692488    -0.24126340
H     -0.18038129    -4.02595169     1.25845834
