      14
Molecule_5022_b3lyp.xyz
C     -0.02900976     1.50696302     0.00690780
C     -0.00636580     0.00844419    -0.01139748
C     -0.03993523    -0.69997692    -1.15468518
O     -0.02141888    -2.05569253    -1.22248589
C      0.03463495    -2.74395023    -0.06247020
C      0.07267226    -2.15954283     1.14572657
C      0.05515546    -0.70264611     1.28088502
O      0.08794878    -0.11551548     2.35461622
H      0.86147880     1.89370257     0.51263340
H     -0.07611247     1.92652984    -1.00137982
H     -0.88758997     1.86633746     0.58306324
H     -0.08547717    -0.26717515    -2.14689754
H      0.04434448    -3.81190501    -0.24205026
H      0.11717143    -2.76574531     2.04206947
