      16
Molecule_4824_b3lyp.xyz
C      0.04195513     1.48265665     0.10315612
C      0.00164884    -0.00238380    -0.01971699
C     -0.13760684    -0.84066578    -1.09696197
N     -0.14159606    -2.16246838    -0.70590654
C      0.00097152    -2.13133009     0.59846351
C      0.10519108    -3.30681269     1.51600938
O     -0.22530669    -2.86012948     2.82799550
N      0.09951836    -0.85394355     1.06391036
H      0.98374509     1.83820915     0.53925584
H     -0.05576047     1.93671542    -0.88581611
H     -0.77362599     1.86955086     0.72672695
H     -0.24162518    -0.56101642    -2.13507003
H     -0.57172848    -4.09539678     1.16031305
H      1.12766845    -3.71675755     1.49074083
H      0.00808987    -3.55546707     3.44897210
H      0.15895307    -0.61115641     2.03910762
