      20
Molecule_5981_b3lyp.xyz
C      0.14948150     1.38628008    -0.08218848
O      0.03829081    -0.01592904    -0.03477415
C      0.77600766    -0.65887480    -1.05338333
C      0.58800349    -2.17291173    -0.91368071
C      1.11414726    -2.67140956     0.44942508
C     -0.89702538    -2.56243059    -1.07598232
C      1.37472121    -2.88377320    -2.00172182
O      2.04518861    -2.34851403    -2.84751497
H      1.19256942     1.71738469     0.04190707
H     -0.22664330     1.79353196    -1.03389027
H     -0.44988488     1.79070292     0.73715234
H      0.43700999    -0.32729517    -2.04743097
H      1.84483496    -0.40358378    -0.97966487
H      0.55079374    -2.19497911     1.25464142
H      1.00326155    -3.75673418     0.54290610
H      2.17263856    -2.42399683     0.58082773
H     -1.28923255    -2.23641641    -2.04488468
H     -1.03176848    -3.64646190    -1.00059144
H     -1.48769358    -2.08451410    -0.29148755
H      1.28461807    -3.99569590    -1.96225855
