      18
Molecule_10330_b3lyp.xyz
C      0.03419388     1.54209855    -0.17348564
C     -0.01626025     0.02853420     0.03286983
O      0.49556374    -0.66606831    -1.10062084
C      0.69897837    -0.44170020     1.31868361
C     -0.01472539     0.01251813     2.60501261
O      0.50721444    -0.60860449     3.76590734
C      0.79371067    -1.96023726     1.31206632
O      1.82540463    -2.57678792     1.34762555
H      1.07170140     1.89640340    -0.20255772
H     -0.44079255     1.79726643    -1.12436604
H     -0.48340186     2.08147820     0.62556791
H     -1.06539775    -0.28977640     0.08608454
H      1.43990141    -0.48255003    -1.16632317
H      1.73035419    -0.05995949     1.31897231
H      0.01586569     1.10868134     2.68454567
H     -1.07043101    -0.28075597     2.56663484
H      1.45344434    -0.43328415     3.80534576
H     -0.19211424    -2.47806922     1.27888071
