      17
Molecule_19165_b3lyp.xyz
O      0.03103353     1.61153658     0.27740952
C      0.09498883     0.21479737     0.52094270
C     -1.17211092    -0.52779098     0.10579991
C     -2.49342939     0.13852381     0.22526870
N     -1.86992921    -0.06481614    -1.09658102
C     -1.06974665    -2.01290279     0.29216558
C     -1.54631790    -2.96155361    -0.71883239
O     -0.14888433    -2.69473904    -0.56859168
H     -0.43544563     2.02622379     1.00876925
H      0.92476310    -0.16518720    -0.08425059
H      0.33066338    -0.00282127     1.57303730
H     -3.38489741    -0.45444745     0.41015508
H     -2.53110762     1.14955752     0.62233497
H     -1.43874832     0.81300643    -1.38385052
H     -1.02267027    -2.34235546     1.33246397
H     -1.86476959    -3.95653111    -0.41028109
H     -1.99806978    -2.56471933    -1.62371108
