      15
Molecule_9194_b3lyp.xyz
C      0.10311939     1.16805041    -0.30692794
O     -0.10497811    -0.11053100     0.29873559
C     -1.33859189    -0.63476265     0.09940670
O     -2.21662659    -0.10432113    -0.54386605
N     -1.44114026    -1.82857148     0.75339303
C     -2.58729249    -2.69851846     0.54865044
C     -2.24829217    -3.94261766    -0.14171725
C     -1.95305158    -4.97286374    -0.68471426
H      1.12988866     1.44433833    -0.06532168
H     -0.03131713     1.11211812    -1.39006231
H     -0.59393051     1.90753716     0.09568489
H     -0.59726787    -2.21787549     1.14154348
H     -3.06052740    -2.93222531     1.51109981
H     -3.30902688    -2.11778037    -0.03385904
H     -1.70211874    -5.87902763    -1.17844311
