      18
Molecule_12667_b3lyp.xyz
C     -0.14652228     1.55445561    -0.01003507
C      0.07321568     0.04380525     0.01775069
C      0.88431209    -0.51642053    -1.17641953
C      1.27806690    -1.93484505    -0.73364902
C      1.44403016    -1.82021024     0.77913832
O      2.03544076    -2.57651212     1.50816580
C      0.82365337    -0.48324282     1.24749610
O      1.91238801     0.38494882     1.55427131
H      0.80743005     2.08459317     0.04003583
H     -0.66002062     1.85135204    -0.93036890
H     -0.75770752     1.88408952     0.83631474
H     -0.90473506    -0.45883437     0.01866628
H      0.31401603    -0.49851500    -2.10849895
H      1.78221770     0.09336299    -1.32408617
H      0.46158104    -2.64587786    -0.92207686
H      2.17571550    -2.34719992    -1.19981935
H      0.17640554    -0.62644346     2.12357309
H      2.48076834    -0.08936569     2.17306586
