      14
Molecule_19147_b3lyp.xyz
O     -1.18196181     1.46828031     0.58576629
C     -0.06566467     1.03339888     0.48201322
C      1.07883889     1.79550434    -0.12272819
C      2.36553530     1.72379337     0.61176724
O      2.15436544     0.96124870    -0.56396075
C      0.73761682     2.98745571    -0.96414300
C      1.61022131     3.41767586    -2.06103971
O      0.39467782     2.71276249    -2.32117801
H      0.22359925     0.02033294     0.83953791
H      3.05149559     2.56386418     0.51906670
H      2.43309534     1.15411533     1.53770934
H      0.09008757     3.71031906    -0.47049778
H      1.61794145     4.46571240    -2.35595987
H      2.51905817     2.85598490    -2.26408077
