      15
Molecule_21574_b3lyp.xyz
N      0.18212199     1.39700035     0.19007367
C     -0.03326982     0.02151551     0.06252695
C     -1.15900376    -0.76405276     0.21409057
C     -0.69647865    -2.08917636     0.02604804
C     -1.49452673    -3.35088174     0.10488413
O     -2.73148412    -3.14936639    -0.57175738
N      0.60514008    -2.13327598    -0.22984764
N      0.99265861    -0.83104567    -0.18948519
H      0.66684656     1.80141607    -0.60322633
H     -0.68738183     1.89423161     0.32941805
H     -2.16876280    -0.43557423     0.39516620
H     -0.90506735    -4.16500836    -0.33988921
H     -1.67384527    -3.61143001     1.16123506
H     -3.27895385    -3.92443971    -0.41504335
H      1.96555506    -0.60226197    -0.29808965
