      16
Molecule_18745_b3lyp.xyz
C     -0.03260275     1.54060283     0.07876260
N      0.10266061     0.10209870     0.12762786
C     -1.12288743    -0.71220005     0.30534390
C     -0.42063279    -1.52987722     1.40036279
O      0.47741413    -2.56525314     0.89968429
C      1.57271840    -1.70664495     0.93640733
N      2.78492898    -1.92202972     0.71682740
C      0.73473271    -0.50362796     1.32935800
H      0.95865215     2.00307331     0.04630709
H     -0.56285560     1.82482028    -0.83603779
H     -0.58602431     1.96506192     0.93842640
H     -1.96518492    -0.13970367     0.72444351
H     -1.45695471    -1.25199818    -0.58617132
H     -0.96057109    -1.86025993     2.28510079
H      2.95175545    -2.89325678     0.44723102
H      1.07038768     0.16757685     2.12037196
