      16
Molecule_14257_b3lyp.xyz
O     -0.21639390     1.44091244     0.38639329
C     -0.02467784     0.07566163     0.10076123
C      0.34504900    -0.88919978     1.26990583
C     -0.86374272    -1.80869621     0.88047022
C     -1.33604935    -0.69476800    -0.13798582
C     -2.49913704    -0.31177452     0.82261650
C     -2.10267063    -1.50035781     1.72231473
O     -2.61327458    -2.02825415     2.66728561
H      0.64172809     1.84486491     0.55016670
H      0.66407006    -0.05767665    -0.74534136
H      1.32247448    -1.36890312     1.19060592
H      0.25715540    -0.43322677     2.25944291
H     -0.63998887    -2.84527060     0.63030213
H     -1.62213374    -0.90982357    -1.16630746
H     -2.41898939     0.67524465     1.28423215
H     -3.50153914    -0.41922884     0.39850908
