      14
Molecule_384_b3lyp.xyz
C      0.19976999     1.65037706    -0.05624651
C     -0.07915914     0.13754614     0.01253991
C      0.53709153    -0.63352256    -1.15053207
O     -0.04816776    -0.14154674    -2.34795303
C      0.36822084    -0.41494657     1.34775321
O      1.12185040    -1.34385359     1.49771047
H      1.27552030     1.85123936    -0.00654392
H     -0.17883703     2.05003388    -0.99829847
H     -0.28368984     2.18290549     0.76883796
H     -1.17162355     0.00077902    -0.02459332
H      1.62852512    -0.49187143    -1.14488164
H      0.34986956    -1.70795742    -1.01860271
H      0.35046130    -0.60695667    -3.08859593
H     -0.05769884     0.12196585     2.22765837
