      15
Molecule_15324_b3lyp.xyz
C      0.05369259     1.49757607     0.02700526
C      0.05984124     0.04321769     0.06177288
C      0.05397516    -1.16068514     0.09015913
C      0.04249369    -2.59266019     0.11334137
C     -0.54474115    -3.34362462     1.28422398
C     -1.27834065    -3.36878946    -0.04009424
C     -2.51609783    -2.65900215    -0.18991774
N     -3.52013163    -2.09948681    -0.31950385
H      0.65121218     1.87552321    -0.80967750
H     -0.96552160     1.88035418    -0.09258482
H      0.46467990     1.92228480     0.94942758
H      0.88020207    -3.07474405    -0.38276185
H     -0.06422110    -4.26255373     1.59867546
H     -0.98256961    -2.75190368     2.07810034
H     -1.22173529    -4.28438697    -0.61877487
