      14
Molecule_815_b3lyp.xyz
O     -0.10078225     1.35469949     0.00875532
N      0.03322320    -0.04820310     0.00392230
C     -1.10716745    -0.62582039     0.01118863
C     -1.23298055    -2.14255242     0.00808224
C     -2.76366564    -2.40468117     0.01884354
C     -3.37188051    -1.02455619     0.02743178
C     -2.45175450    -0.05113051     0.02312208
H      0.81763420     1.64268480     0.00242595
H     -0.75014387    -2.57049331    -0.87455411
H     -0.73708497    -2.57510859     0.88118310
H     -3.09315804    -2.97875288    -0.85586552
H     -3.07998782    -2.98389777     0.89501662
H     -4.44479196    -0.86546614     0.03609305
H     -2.63496731     1.01346812     0.02750636
