      20
Molecule_13988_b3lyp.xyz
O     -0.10157783     1.47937290    -0.07603642
C     -0.01252436     0.06531057    -0.16974101
C     -1.38208928    -0.51414460     0.17617863
C     -1.40384428    -2.01690572     0.13908253
C     -1.57946238    -2.80402377    -1.13469699
C     -2.57935047    -2.98772794    -0.02479541
C     -2.00028705    -3.91478885     1.04873333
C     -0.79236650    -2.93497515     1.21392265
H      0.75917982     1.84988132    -0.29111003
H      0.27568368    -0.25337144    -1.18406790
H      0.74566451    -0.33286924     0.52430139
H     -1.66710953    -0.15163096     1.17219586
H     -2.11794953    -0.10816996    -0.52846760
H     -1.93293847    -2.23004546    -1.98616770
H     -0.89402973    -3.60878429    -1.39512839
H     -3.63035277    -2.76319182    -0.16721051
H     -2.61328270    -3.96848267     1.95115711
H     -1.76931462    -4.93564922     0.72562864
H      0.20469966    -3.33492508     1.00004081
H     -0.77273873    -2.46966323     2.20322701
