      20
Molecule_13284_b3lyp.xyz
C      0.17854750     1.46140456     0.05120314
C      0.03502632    -0.04937074    -0.01785936
O      0.67220388    -0.51017204    -1.19286416
C      0.60166789    -1.90804767    -1.35948744
C      1.34584975    -2.27371545    -2.62829072
C      2.88350942    -2.16691185    -2.54958672
O      3.03152140    -3.60205423    -2.62917479
C      1.61532883    -3.78089469    -2.82740559
H      1.23441453     1.74564343     0.07403903
H     -0.28352525     1.93106351    -0.82175367
H     -0.30560823     1.84972166     0.95217209
H      0.48772534    -0.52291372     0.86991178
H     -1.03002012    -0.33760109    -0.02631119
H      1.05479031    -2.42547210    -0.49502295
H     -0.44947081    -2.24158959    -1.42079621
H      0.89371145    -1.76316462    -3.48095512
H      3.36400202    -1.65926102    -3.39514366
H      3.28319703    -1.75825147    -1.61396289
H      1.17470150    -4.45244914    -2.07824327
H      1.38481941    -4.16990387    -3.82752837
