      19
Molecule_13641_b3lyp.xyz
C     -0.08778676     1.46848715    -0.26006756
C     -0.03452456     0.03558867    -0.00614864
C      0.02078401    -1.14965181     0.19814975
C      0.05483823    -2.58788187     0.45105450
C     -1.31277878    -3.23716512     0.28933330
N     -1.67140710    -3.71686884    -1.05213350
C     -1.52114092    -4.69097168     0.04372439
C     -0.41398315    -5.71116086    -0.08035508
H      0.71178987     1.78261192    -0.94034061
H     -1.04075606     1.75717668    -0.71763036
H      0.02137166     2.04458309     0.66571992
H      0.76327597    -3.06686298    -0.23258315
H      0.42267804    -2.77481190     1.46951094
H     -2.09170515    -2.73628251     0.86229824
H     -2.65082100    -3.53659964    -1.25234884
H     -2.44163498    -5.09408375     0.46665333
H      0.47703458    -5.28134290    -0.54273611
H     -0.13881434    -6.11087303     0.90197694
H     -0.73741920    -6.55061562    -0.70519562
