      18
Molecule_20062_b3lyp.xyz
C      0.20716185     1.44502426    -0.06333510
O      1.06382613     0.34754741    -0.38655492
C     -0.27683897     0.06122704     0.01871268
C     -0.46815506    -0.71487910     1.30599820
C     -0.07508839    -2.21372127     1.14740603
C      0.51556476    -2.63991007     2.51381751
C      0.88896151    -1.32042939     3.14497173
C      0.36693580    -0.28382141     2.49414052
H      0.46976234     1.98864368     0.84193349
H     -0.09083535     2.07054629    -0.90428841
H     -0.91186888    -0.28442710    -0.80098021
H     -1.53705295    -0.62847317     1.56201198
H     -0.91350415    -2.83816169     0.82864971
H      0.70259270    -2.28497953     0.38050645
H     -0.22406597    -3.16697168     3.13354292
H      1.36707853    -3.32137033     2.40820642
H      1.48092416    -1.25195107     4.05128296
H      0.46495434     0.75217347     2.79726193
