      18
Molecule_15007_b3lyp.xyz
C     -0.05524809     1.37765523    -0.00447920
O     -0.02573329    -0.04039880    -0.05269612
C      0.61879155    -0.55705637    -1.15948812
C      0.71415937    -2.07257134    -0.99783219
O      1.27643201    -2.65997850    -2.15951028
C      0.52645639    -2.33745335    -3.32018038
C      0.43732396    -0.82497212    -3.48755320
O     -0.13301741    -0.24103782    -2.32525679
H      0.96238800     1.79513839    -0.02233828
H     -0.62455105     1.79475396    -0.84153133
H     -0.53646082     1.65078989     0.93663267
H      1.63448357    -0.12566537    -1.27241157
H      1.36667192    -2.32928729    -0.15995008
H     -0.29698301    -2.46096796    -0.80051676
H      1.04273206    -2.79842281    -4.16772110
H     -0.48907878    -2.75986534    -3.25001895
H      1.44406384    -0.41479019    -3.67013384
H     -0.20845236    -0.55462752    -4.32832971
