      16
Molecule_14065_b3lyp.xyz
O      0.08513171     1.38602217     0.01035072
C      0.05785416    -0.00799626    -0.00821025
C     -0.46188604    -0.72257165     1.22221911
O     -0.95515979     0.10406772     2.24833759
C     -1.27237792    -0.71340534    -0.03650659
C     -2.63378795    -0.07010925    -0.26164918
O     -3.03974756    -1.18419316    -1.09325438
C     -1.78337341    -1.86531065    -0.89241951
H     -0.35234563     1.65061577     0.83188480
H      0.89487490    -0.42718434    -0.56032714
H     -0.00756235    -1.65711628     1.54964617
H     -0.23383243     0.27301833     2.86524025
H     -3.26614568     0.03263249     0.62805536
H     -2.61643253     0.87736152    -0.81366720
H     -1.24913282    -2.03564057    -1.83660665
H     -1.91303786    -2.82481770    -0.37292638
