      19
Molecule_8553_b3lyp.xyz
C     -0.08846082     1.47630347     0.02234237
C      0.11132488    -0.00819259    -0.02922336
C      0.00777842    -0.87368412    -1.27811763
C     -0.24664842    -2.01473386    -0.28161965
C      1.07173670    -2.20475701     0.48355233
C      0.76487503    -0.82608520     1.05326154
C      1.30793492    -0.27141395     2.33534622
N     -0.71752134    -0.97611500     0.78736659
H      0.77017911     2.00044926    -0.41367346
H     -0.98117314     1.76261545    -0.54388038
H     -0.21755610     1.83310886     1.04719923
H     -0.89438003    -0.61925920    -1.84256535
H      0.86151022    -0.95271867    -1.96078365
H     -0.89213182    -2.85570942    -0.52720803
H      0.98179444    -2.96649112     1.26386314
H      1.99248879    -2.36749311    -0.08818391
H      2.36236769     0.00746418     2.22355536
H      0.75654621     0.61445814     2.66017264
H      1.23936955    -1.01688149     3.13478190
