      15
Molecule_5677_b3lyp.xyz
C     -0.06181927     1.45741167     0.01052927
C      1.39739348     1.87336701    -0.00121819
C      2.18893229     0.78578439    -0.01467261
C      1.36544556    -0.40752601    -0.01327492
C      1.37871543    -1.78860130    -0.02072378
C      0.01671396    -2.20499080    -0.00997818
C     -0.78244434    -1.07593884     0.00384470
N      0.04930306     0.00757037     0.00154623
H     -0.59116035     1.81599077     0.90283340
H     -0.60817742     1.82567186    -0.86746010
H      1.70618489     2.90879830     0.00140887
H      3.27011142     0.78006107    -0.02505217
H      2.25039815    -2.42412822    -0.03246290
H     -0.34294743    -3.22303675    -0.01204844
H     -1.85564019    -0.97021634     0.01471067
