      20
Molecule_7502_b3lyp.xyz
O     -0.32899152     1.44861764     0.32931622
C     -0.05803385     0.06873219     0.13686638
C     -1.39502259    -0.64669169    -0.02218527
C     -1.28864055    -2.16798401    -0.16980703
O     -0.54519177    -2.53482449    -1.32127823
C     -0.93439695    -2.92048872     1.15630286
C     -2.44343211    -3.23513865     1.34059439
C     -2.66937218    -2.87000350    -0.15123288
H      0.50973119     1.91269742     0.40624529
H      0.55941559    -0.08405969    -0.76413504
H      0.49824406    -0.34902005     0.99210729
H     -2.01484819    -0.40479192     0.84916924
H     -1.90569495    -0.24190074    -0.90340011
H      0.35572132    -2.20968764    -1.22371064
H     -0.35462488    -3.81903896     0.92999666
H     -0.43149915    -2.35917921     1.94849059
H     -2.70363716    -4.24988477     1.64726588
H     -2.93405637    -2.53468718     2.02122173
H     -3.54047783    -2.26149981    -0.40714956
H     -2.64277253    -3.74884004    -0.79955594
