      17
Molecule_4536_b3lyp.xyz
C      0.09329052     1.43073290    -0.00863614
N     -0.03778885    -0.00524754     0.01797104
C     -0.14492934    -0.81089690    -1.09504133
C     -0.03603546    -2.12368741    -0.69117887
N     -0.18134878    -3.31493273    -1.43916439
C      0.15675938    -2.11664126     0.72201341
N      0.34351956    -3.29718938     1.47639447
C      0.16260401    -0.79950030     1.12678072
H      1.13187730     1.75668399    -0.15713018
H     -0.51606227     1.84068816    -0.81894555
H     -0.26846322     1.85129806     0.93397606
H     -0.29583670    -0.38518602    -2.07463094
H     -0.19250006    -3.13686539    -2.43615347
H      0.58015763    -3.95743295    -1.24198700
H      0.30697982    -3.12028110     2.47290648
H     -0.37067994    -3.98334661     1.25049993
H      0.29032511    -0.36276353     2.10479339
