      15
Molecule_18099_b3lyp.xyz
C      0.00868434     1.50600613     0.01005366
O      1.40396840     1.88347889    -0.00126203
C      2.12137725     0.74220356    -0.01419932
N      3.38083444     0.57399400    -0.02716801
C      3.58660456    -0.88927408    -0.03698035
C      2.17730191    -1.60827353    -0.02745349
C      1.25369413    -0.43054883    -0.01224323
C     -0.01027116    -0.01049669     0.00212848
H     -0.46002621     1.93802455     0.90389898
H     -0.47699386     1.94751340    -0.86999088
H      4.16886166    -1.16726625    -0.92263058
H      4.18553408    -1.17668189     0.83443356
H      2.03385194    -2.24017196    -0.90921257
H      2.05061996    -2.24978681     0.84991768
H     -0.93064146    -0.57912394     0.00788400
