      20
Molecule_7631_b3lyp.xyz
C     -0.20981197     1.45982680     0.03933232
C      0.03588257    -0.05389759    -0.02302490
C      0.73854249    -0.44310707    -1.33084810
C      0.82744340    -0.53549957     1.19370428
C      0.15289604    -0.41490428     2.59962340
C      0.57952604    -1.86558451     2.86936538
O      0.65186089    -2.53949968     3.85538117
C      0.98165230    -2.07786815     1.40223362
H      0.73867665     2.00969097     0.01620417
H     -0.80869341     1.79691580    -0.81288444
H     -0.73857239     1.74642020     0.95390563
H     -0.94235718    -0.55860889     0.00085171
H      1.72117196     0.03825132    -1.40330236
H      0.89161744    -1.52466125    -1.40139020
H      0.15202931    -0.13083474    -2.20093411
H      1.81110497    -0.05220694     1.20332533
H      0.52316356     0.33760434     3.30009748
H     -0.93892201    -0.32758062     2.54147211
H      0.22242628    -2.65792554     0.86354655
H      1.95686512    -2.53924222     1.22866891
