      19
Molecule_16420_b3lyp.xyz
C     -0.56984385     1.41301706     0.09578246
C      0.09381166     0.04429035    -0.02716323
C      0.90272568    -0.06873102    -1.35025835
O      1.99460789    -0.98652078    -1.26891854
C      2.54218348    -1.08856710     0.03746735
C      1.47298124    -1.64236319     0.99876095
N      0.95042015    -0.23183362     1.15443140
C      2.35884554     0.22273540     0.83416732
H      0.18058860     2.20918688     0.15728280
H     -1.20587134     1.61946921    -0.77204055
H     -1.18404310     1.45691089     0.99841290
H     -0.68770541    -0.72483500    -0.01292733
H      0.26769357    -0.40801153    -2.17424582
H      1.28476829     0.92560522    -1.62574289
H      3.52062207    -1.56585223    -0.06316725
H      0.76148433    -2.36481209     0.58984347
H      1.87032768    -2.00095057     1.95355974
H      2.95378359     0.24694033     1.75092840
H      2.45542951     1.18008588     0.31725333
