      17
Molecule_6444_b3lyp.xyz
C      0.10676329     1.64804973     0.02672715
C      0.05715950     0.12912525     0.01216803
C      1.06213014    -0.64003253    -0.89077388
C      1.24876787    -1.68545222     0.24127216
O      2.59138200    -2.06685146     0.42250221
C      0.62491780    -0.64822298     1.23336060
C      0.38876639    -2.86799627     0.07324336
N     -0.27587729    -3.80883738    -0.02757425
H      1.12075937     2.00658528     0.23644402
H     -0.20184686     2.06312095    -0.93886813
H     -0.55914132     2.05899310     0.79322133
H     -0.96223386    -0.21001234    -0.19801872
H      0.72954662    -1.00301623    -1.86393532
H      2.00414134    -0.09620458    -1.00395566
H      2.63969056    -2.71337369     1.13635434
H      1.44205745    -0.10336440     1.71519689
H     -0.07014461    -1.01792598     1.98925136
