      12
Molecule_3890_b3lyp.xyz
N      0.14456768     1.47067658    -0.03785865
C      0.23689847     0.01748163    -0.13308820
C      0.85479173    -0.53466212     1.10958287
N      0.77434938    -0.05867549     2.31706669
C      1.48193635    -0.99310520     3.03238501
N      1.96699708    -1.98170555     2.33493340
O      1.54774776    -1.67474683     1.03057160
H     -0.47246437     1.82271652    -0.76174116
H     -0.26226497     1.72208554     0.85789392
H     -0.72889365    -0.50283674    -0.27098970
H      0.86353504    -0.26406116    -0.98656858
H      1.63817065    -0.93256193     4.09962255
