      16
Molecule_8586_b3lyp.xyz
O     -0.10341727    -0.07405302    -0.24598105
C     -0.03488477     1.09409370    -0.02965505
C     -1.12393536     2.21659697     0.26277687
C      0.06424050     2.98993849     0.86217153
C      1.09961010     4.16092627     0.92118114
C      1.90373548     2.82777263     1.24223219
C      0.72937475     2.43262099     2.16367288
C      1.09912204     2.18085104     0.06062432
H     -1.49068577     2.62492117    -0.68522950
H     -1.97121739     1.94641869     0.89755909
H      1.33230771     4.65562760    -0.02505997
H      1.01259745     4.87849733     1.74210110
H      2.97265520     2.76002112     1.45522935
H      0.58324706     3.02420565     3.07101334
H      0.60633588     1.36424267     2.36278248
H      1.33103020     2.55335776    -0.94452607
