      17
Molecule_9263_b3lyp.xyz
C      0.39907038     0.98092388    -0.53797849
C     -0.27141665    -0.23095889     0.10438009
C      0.39357941    -0.64471386     1.41854340
O      0.34151584     0.38455570     2.38697560
O     -1.63660057     0.05436909     0.47412001
C     -2.56816068     0.08000418    -0.57265584
C     -2.79304463    -1.25046274    -1.17571136
N     -2.95507088    -2.29321350    -1.64602263
H      1.41502827     0.72030058    -0.85049192
H     -0.13616552     1.32597220    -1.42732657
H      0.45738711     1.79846884     0.18392708
H     -0.25788865    -1.09101560    -0.58086801
H     -0.08672879    -1.56502561     1.78197622
H      1.45176177    -0.86092846     1.24087991
H     -0.59118286     0.59806512     2.50465670
H     -3.51314785     0.43494915    -0.14984926
H     -2.28486934     0.77473992    -1.37600159
