      13
Molecule_16275_b3lyp.xyz
O     -0.96303460     1.31657717    -0.16870014
C      0.14319866     0.88133287     0.06744593
C      1.35507608     1.71220686    -0.00990939
N      1.21766631     3.20998421    -0.03259686
C      1.78435345     2.59321625    -1.20084688
C      3.27398521     2.35760105    -0.90951324
C      2.81567221     1.40019255     0.22692943
O      3.37372110     0.56683351     0.87719745
H      0.31126172    -0.17836901     0.34037145
H      0.21600584     3.35459076    -0.19295817
H      1.29133432     2.59679338    -2.16484920
H      3.81304655     1.80517371    -1.68315634
H      3.83391846     3.24757246    -0.61629233
