      17
Molecule_18739_b3lyp.xyz
C     -0.50555189     1.47470899     0.05542592
C      0.01687534     0.04779720    -0.00272884
C      1.32571489    -0.24926774    -0.81088868
C      1.94825863    -0.89129821     0.44374660
O      2.70993431     0.07866538     1.23122271
C      1.60607756     0.36113926     2.02068194
N      1.48950211     1.13199265     3.00335986
C      0.67931203    -0.57221583     1.27892380
H      0.26474246     2.17027444     0.40152333
H     -0.83853753     1.80207827    -0.93549287
H     -1.35508004     1.55689279     0.74115729
H     -0.78078758    -0.62304154    -0.33480294
H      1.18611835    -0.93788805    -1.64749066
H      1.87857283     0.62608679    -1.16005805
H      2.46007691    -1.85139152     0.39256170
H      2.37203184     1.60325090     3.21116746
H      0.10476623    -1.28177492     1.87064648
