      17
Molecule_13692_b3lyp.xyz
O     -0.03973586     1.44811916     0.23019560
C     -0.00987489     0.05395338     0.10653135
C     -0.62994432    -0.80486155     1.17603198
C     -1.31916727    -0.63390857    -0.16428385
C     -2.58269140     0.17357886    -0.24550303
O     -3.66566052    -0.64434382     0.22178093
C     -4.90254827    -0.15840993     0.02248842
N     -5.90939005    -0.78159853     0.46289838
H      0.56742899     1.69611098     0.93497089
H      0.86568892    -0.33445945    -0.41302555
H     -0.18021096    -1.76195901     1.41436390
H     -1.07881045    -0.28890545     2.01843724
H     -1.28630313    -1.48231096    -0.84065724
H     -2.49804767     1.07589421     0.36873308
H     -2.77676404     0.48374467    -1.28122556
H     -4.92039423     0.78521736    -0.54213385
H     -6.75995983    -0.28183280     0.21202406
