      13
Molecule_4603_b3lyp.xyz
C     -0.02019952     1.54455096     0.00615020
C      0.00055629     0.04203241    -0.01384395
C     -0.05159268    -0.69293633    -1.14891243
O     -0.03291890    -2.02299112    -1.15485180
C      0.04492034    -2.76691296     0.06622337
O      0.05545868    -3.95478379    -0.03767466
N      0.09981825    -2.03932921     1.23838683
C      0.07823645    -0.74210942     1.18297001
H      0.88119013     1.95077186     0.47785856
H     -0.07729791     1.94898420    -1.00782988
H     -0.88076008     1.92540682     0.56692617
H     -0.11270581    -0.27514459    -2.15015084
H      0.12432387    -0.22198531     2.14241745
