      20
Molecule_18027_b3lyp.xyz
C      0.00858424     1.56818766    -0.05663809
C      1.57199443     1.47723828     0.03095263
C      1.36318800     0.09024974     0.60326940
C      1.87398393    -0.66587206     1.56519358
C      1.08947976    -1.83507587     2.11666184
C     -0.26377382    -2.06268215     1.40397411
C     -0.97386192    -0.74676053     1.02176724
C     -0.05248049     0.01074579     0.07205942
H     -0.41067327     2.05939960     0.82572618
H     -0.41909755     2.01769748    -0.95588447
H      2.02872831     1.46653935    -0.96551123
H      2.09763257     2.21242008     0.64607796
H      2.82622657    -0.42728205     2.03474904
H      1.68465709    -2.75711576     2.07250125
H      0.91728045    -1.65723677     3.18907871
H     -0.09415074    -2.64060362     0.48633693
H     -0.90969678    -2.67711113     2.04017883
H     -1.95326910    -0.95530428     0.57673682
H     -1.14869610    -0.14410602     1.92273462
H     -0.08532548    -0.43896161    -0.92996215
