      13
Molecule_16270_b3lyp.xyz
N      0.16168718     1.23826262    -0.04475589
C      0.02548850    -0.00089934     0.05219385
O      0.98250376    -1.02293527     0.08922623
C     -0.05739163    -2.01938321     0.00207913
C     -0.92822153    -1.97394987     1.18166802
C     -1.14501585    -0.92673682     0.06958615
C     -2.41175909    -0.82515027    -0.67699457
O     -3.25560672    -1.69087165    -0.68237759
H      1.14507271     1.51070424    -0.07908587
H      0.06309988    -2.81475621    -0.72024482
H     -1.73785483    -2.69671876     1.20818894
H     -0.52798834    -1.64924992     2.13618832
H     -2.52943917     0.11362434    -1.25515503
