      14
Molecule_12046_b3lyp.xyz
O     -0.00133515     1.37854096    -0.08082753
C      0.02742849    -0.01581112    -0.01853781
C      0.30947658    -0.68270186     1.40163575
C     -1.10320358    -1.25989050     1.36053035
N     -2.01293510    -0.09879295     1.18001968
C     -1.35866415    -0.71410933     0.00397237
C      0.91225268    -0.52430551    -1.06653752
N      1.59740263    -0.97404654    -1.88049524
H     -0.74430380     1.63054426     0.48902687
H      1.09266165    -1.44026740     1.35245635
H      0.52088053     0.03511435     2.19686603
H     -1.46026448    -2.17869387     1.80573939
H     -2.97474928    -0.43196992     1.20860150
H     -1.92462911    -1.09155657    -0.83759585
