      21
Molecule_1695_b3lyp.xyz
C      0.02908687     1.37693410     0.10257108
O     -0.04433968    -0.02016657    -0.04110339
C      0.65422622    -0.54973295    -1.16629280
C      2.15444009    -0.64286945    -0.87102415
C     -0.00035931    -1.90661762    -1.48638875
C     -1.49395336    -1.73164523    -1.79395167
C      0.70504537    -2.63798975    -2.63689588
H      1.04911256     1.73341017     0.31031621
H     -0.33872634     1.89914819    -0.79505372
H     -0.60640639     1.64748119     0.95009819
H      0.49867512     0.12220766    -2.02978741
H      2.34236808    -1.37035467    -0.07445702
H      2.71861384    -0.94277408    -1.75790050
H      2.54990260     0.32379583    -0.54627850
H      0.09310535    -2.51643135    -0.57679789
H     -1.97815073    -2.70312296    -1.93681256
H     -2.00008825    -1.20673387    -0.98209802
H     -1.63616344    -1.15360628    -2.71579171
H      1.73668003    -2.90527240    -2.39330482
H      0.17387028    -3.56368229    -2.88003365
H      0.72150492    -2.02262672    -3.54500451
