      21
Molecule_2855_b3lyp.xyz
C     -0.37420273     1.52801956     0.25901523
C      0.17059572     0.13978406    -0.09839223
C      0.90071638    -0.50981651     1.06065640
C      0.15610782    -1.31022736     2.10569622
C      1.12976721    -1.99969460     1.17627201
C      0.65402182    -3.00460918     0.14561052
C      0.54066835    -4.42172019     0.72066730
H      0.43471947     2.20504741     0.55552013
H     -0.89464877     1.98298402    -0.58974130
H     -1.07789581     1.46934172     1.09599526
H     -0.65792784    -0.49807451    -0.42620155
H      0.84801755     0.22463028    -0.95877078
H      1.71525117     0.10213213     1.44441362
H      0.41363791    -1.18941036     3.15241897
H     -0.90191420    -1.48655286     1.92950636
H      2.08075733    -2.27530406     1.62890422
H     -0.31940296    -2.70039027    -0.25522554
H      1.34555494    -3.01186945    -0.70766527
H      1.50781670    -4.77343438     1.09690920
H     -0.16756143    -4.45048804     1.55538036
H      0.19963353    -5.13382232    -0.03752147
