      18
Molecule_16519_b3lyp.xyz
C     -0.02030471     1.46900200     0.05379813
C      0.00225425    -0.03674330    -0.03261727
C      1.03475182    -0.73663608    -0.92541315
C      0.38559972    -2.10115287    -1.28963603
C     -0.71519497    -2.23682902    -0.24431913
O     -0.07651934    -2.20178119     1.07958310
C     -0.43972060    -0.82592565     1.18925352
C     -1.30122820    -0.82363759    -0.03470614
H      0.93651521     1.85825790     0.42010012
H     -0.20990636     1.92118436    -0.92684053
H     -0.80224074     1.81974533     0.73614871
H      1.24233013    -0.13485543    -1.81603936
H      1.98372315    -0.87526717    -0.39814795
H     -0.05378284    -2.08057328    -2.29398287
H      1.09069731    -2.93577755    -1.24396145
H     -1.38804269    -3.09101936    -0.33777963
H     -0.56765602    -0.40853301     2.18232802
H     -2.29725292    -0.45460033    -0.23829496
