      16
Molecule_471_b3lyp.xyz
O     -0.28412458     1.44460881     0.30554523
C     -0.00442864     0.07102309     0.02950675
C      0.71078101    -0.60178156     1.21189528
C     -0.42189572    -0.80613634     2.23008330
C     -1.61159259    -1.26923941     1.35916369
C     -1.36243327    -0.65363590    -0.04889401
H      0.55550106     1.89095887     0.45603190
H      0.56372337    -0.01531590    -0.90771069
H      1.11743573    -1.56907961     0.88891141
H      1.54852077    -0.00544152     1.59075840
H     -0.16978971    -1.51643767     3.02199168
H     -0.65414319     0.15301685     2.70290203
H     -1.62748136    -2.36235876     1.29455033
H     -2.57275319    -0.96540368     1.78132821
H     -2.13167458     0.06520900    -0.33990748
H     -1.33378725    -1.43022771    -0.81848731
