      19
Molecule_11125_b3lyp.xyz
C      0.13279961     1.42828761    -0.25839711
C     -0.03571123    -0.06955499     0.01382844
C     -1.48822290    -0.48217713     0.21720420
C     -2.39968613    -0.48817721    -1.05386180
N     -2.61797194    -1.91838869    -0.83296053
C     -1.76693410    -2.01179168     0.35098581
C     -3.32850145    -2.86762138    -1.47550630
O     -3.38090254    -4.03456637    -1.14105726
H      1.18518153     1.68816051    -0.40542983
H     -0.41192112     1.73509520    -1.15823261
H     -0.24557051     2.02711781     0.57733240
H      0.38898419    -0.64915137    -0.81680408
H      0.53919375    -0.34947925     0.90588758
H     -1.93163129     0.09304785     1.03441803
H     -3.30753332     0.12197209    -0.99333179
H     -1.87747705    -0.25461025    -1.99012519
H     -0.89261201    -2.65815183     0.21185249
H     -2.29922796    -2.33162392     1.25233817
H     -3.86839931    -2.45571470    -2.35414300
