      18
Molecule_9859_b3lyp.xyz
C     -0.01853488     1.44756544    -0.21414550
C     -0.00966997     0.00075318    -0.04555822
C      0.02979459    -1.19623487     0.08803797
C      0.00386889    -2.64815192     0.26108233
C     -1.40144501    -3.20835789     0.06331412
O     -2.35016950    -2.66368290     0.93581255
C     -1.85971280    -3.61115116    -1.31549177
C     -1.59300777    -4.65721707    -0.24413590
H      0.94226929     1.80538112    -0.60040168
H     -0.79514073     1.76335854    -0.91947424
H     -0.20443970     1.96072704     0.73578441
H      0.69505727    -3.12784938    -0.44219369
H      0.34793851    -2.90587434     1.27127804
H     -2.33751447    -1.70778534     0.79712207
H     -2.89600911    -3.41059482    -1.56178979
H     -1.16623778    -3.53063160    -2.14589510
H     -0.71682281    -5.28927447    -0.34225275
H     -2.45244960    -5.13660951     0.20987655
