      20
Molecule_14749_b3lyp.xyz
C      0.00222765     1.57204515     0.01819327
C     -0.00106905     0.04116476     0.00603129
C     -1.41364199    -0.55253525     0.00774456
C     -1.42018408    -2.07987261     0.00445285
N     -2.78638858    -2.59800699    -0.03357047
C     -2.83452596    -4.05326564     0.01257099
C     -4.21752647    -4.53859912     0.02369646
N     -5.30635255    -4.92237168     0.05649941
H      1.02219764     1.96825590     0.01523808
H     -0.51521291     1.97564240    -0.85896056
H     -0.50412753     1.96182236     0.90816020
H      0.54160104    -0.31965294    -0.87759050
H      0.55317172    -0.33384203     0.87650386
H     -1.95757744    -0.19121249     0.89246599
H     -1.97429017    -0.19661877    -0.86483553
H     -0.89840029    -2.44884817    -0.88912219
H     -0.84894982    -2.45704425     0.87474217
H     -3.31919251    -2.21952627     0.74366535
H     -2.33735070    -4.45119868    -0.88127000
H     -2.31230486    -4.49803295     0.88070841
