      13
Molecule_16267_b3lyp.xyz
O     -0.08564187     0.03582966     0.12305701
C     -0.04175870     1.22515361     0.02996401
N     -1.04438570     2.21249425     0.03990347
C     -0.07901441     3.30837724    -0.03050657
C      0.91322460     3.24150310     1.07890082
C      1.06139394     2.28824472    -0.12947822
C      2.20734839     2.24719521    -0.96242937
C      3.18074801     2.18696258    -1.66655477
H     -1.82909948     2.19368961     0.68188694
H     -0.24949589     4.16013492    -0.67449099
H      1.67047404     4.01878322     1.11234817
H      0.62368668     2.83477650     2.04336460
H      4.03620465     2.12995731    -2.29293915
