      13
Molecule_936_b3lyp.xyz
C     -0.01326421     1.48997776     0.01520693
C      0.00521412    -0.01323256     0.01206647
N      0.11490892    -0.61505743    -1.18227195
C      0.13096656    -1.94649681    -1.18066098
C      0.03992360    -2.69529095    -0.01227684
C     -0.06998190    -1.97200849     1.16721121
N     -0.08845674    -0.63738783     1.19332263
H      0.90349717     1.88008628    -0.43814732
H     -0.84735092     1.85891160    -0.59003963
H     -0.10610960     1.86664310     1.03380760
H      0.22004930    -2.43074214    -2.15127364
H      0.05397143    -3.77830743    -0.02257189
H     -0.14638009    -2.47408401     2.12962237
