      15
Molecule_7751_b3lyp.xyz
C      0.05574494     1.45941270    -0.05427204
C     -0.14638815    -0.01959168     0.02395589
N     -1.23047415    -0.59771639    -0.26148242
C     -1.27947083    -2.04621415    -0.12363238
C      0.08364021    -2.69734126    -0.38574252
C      1.16063289    -2.00623510     0.41332466
O      2.10587492    -2.51655244     0.93497423
O      1.01256223    -0.63644098     0.49482035
H      0.87496350     1.69401678    -0.74147343
H     -0.86264197     1.93538010    -0.39517789
H      0.33658290     1.85306465     0.92771229
H     -1.63511180    -2.29105699     0.88715254
H     -2.02670460    -2.43962941    -0.81837326
H      0.10412765    -3.76216434    -0.14856106
H      0.34088537    -2.58383926    -1.44703788
