      13
Molecule_20721_b3lyp.xyz
C     -0.01924592     1.51679218     0.01370658
C      0.00036014     0.01981454    -0.03244797
N     -0.05475874    -0.56901064    -1.19279619
N     -0.03363216    -1.91361201    -1.17707637
C      0.04026585    -2.73786420    -0.06305449
O      0.05444612    -3.95150590    -0.13598529
C      0.09568768    -1.93144157     1.16495147
N      0.07718273    -0.64041394     1.18184934
H      0.88501660     1.89286867     0.50298032
H     -0.08396515     1.92809242    -0.99389421
H     -0.87121589     1.86662361     0.60545913
H     -0.07715164    -2.35731141    -2.08605040
H      0.15565573    -2.47726875     2.10530722
