      12
Molecule_21675_b3lyp.xyz
N     -0.01010476     1.33881904     0.09722917
C     -0.01365141    -0.04109419     0.04620689
N     -1.13728467    -0.67369804     0.08363889
O     -1.04345480    -2.07155134     0.14359562
C      0.15958440    -2.74735991    -0.00600872
N      0.17681379    -4.00792127    -0.11947505
N      1.35203766    -2.02009244     0.00207314
C      1.26541810    -0.74713377     0.03292865
H      0.70488274     1.79343897    -0.45261881
H     -0.92410120     1.75509278    -0.02292451
H     -0.77649682    -4.37310020    -0.12110979
H      2.18665550    -0.16264541     0.05665619
