      17
Molecule_3367_b3lyp.xyz
C     -0.04623149     1.56974132     0.04269968
C      0.04114454     0.06326381    -0.03825289
C      0.69005332    -0.68385925    -1.19826107
C      1.64302560     0.07424426    -2.12328927
C      2.92821782     0.17883018    -1.27413909
O      2.51534899     0.09907247     0.09419821
C      1.34334765    -0.67473228     0.15783554
H      0.92107220     2.03695949    -0.15463086
H     -0.77731124     1.97020820    -0.66829869
H     -0.35530073     1.87839228     1.04688389
H     -0.82447200    -0.45571523     0.36856114
H      0.19380197    -1.56869969    -1.57899938
H      1.81762759    -0.47568676    -3.05185575
H      1.26067846     1.06332821    -2.39502415
H      3.61396017    -0.65032510    -1.50628376
H      3.47000185     1.12041073    -1.40337410
H      1.41452979    -1.54603631     0.80252866
