      18
Molecule_11959_b3lyp.xyz
C      0.19602719     1.33231743     0.19541588
O     -0.20404760     0.00874365    -0.12955489
C      0.49081617    -0.53837756    -1.18006251
C      1.93255978    -1.00885976    -1.08493358
C      0.83415320    -1.97828186    -1.45809961
C      0.52988937    -3.28577268    -0.80756984
O      0.53525395    -1.83333861    -2.85824877
C      0.08124478    -0.46800384    -2.65027970
H      1.26562718     1.37698465     0.44044429
H     -0.00452268     2.03146054    -0.62829320
H     -0.38812929     1.63520368     1.06694715
H      2.67968248    -0.71810898    -1.81920055
H      2.28828778    -1.10536023    -0.06316766
H      0.68218259    -3.21547227     0.27294320
H     -0.50655873    -3.58115643    -0.99649108
H      1.18678476    -4.07267324    -1.19465254
H     -1.00413396    -0.39339610    -2.78424048
H      0.59363063     0.24621472    -3.30546676
