      14
Molecule_17994_b3lyp.xyz
N      0.08966776    -1.12267584     0.15174974
C      0.07639907     0.03064504     0.08803206
C      0.03486193     1.48557807    -0.04223954
O     -0.32868742     2.17487575     1.17825684
C      0.82644799     3.04113063     1.10174082
C      2.04411404     2.53816370     1.90344440
N      2.40493935     1.63890836     0.76955018
C      1.38804722     2.24700245    -0.10227937
H     -0.65466209     1.75257470    -0.85392783
H      0.55633568     4.09740658     1.13169945
H      2.77198702     3.33571441     2.09902043
H      1.81614631     2.01487501     2.83654142
H      3.35599557     1.72005941     0.43606171
H      1.70402427     2.64817063    -1.06515721
