      17
Molecule_2370_b3lyp.xyz
C      0.43638807     0.62869117    -0.64166825
C      0.04259181    -0.03020512     0.67884911
O     -0.20455121     0.95987175     1.68121687
C     -1.13767168    -0.99612530     0.63400216
C     -2.24744742    -0.93721312    -0.40447584
C     -1.31229557    -2.12005421    -0.34449836
O     -0.33751348    -2.29751451    -1.33453339
H      1.29930269     1.27819514    -0.47298716
H      0.68364829    -0.11991272    -1.39604116
H     -0.38018680     1.25108424    -1.02800734
H      0.90771649    -0.58352737     1.06406952
H     -0.96439878     1.47531276     1.38764271
H     -1.46197428    -1.23689299     1.64282837
H     -3.27812810    -1.05722405    -0.08803173
H     -2.10750469    -0.26499607    -1.24425511
H     -1.70902923    -3.05309812     0.05604228
H     -0.78288604    -2.57834202    -2.14060794
