      17
Molecule_2701_b3lyp.xyz
O     -0.07589178     1.46810626     0.01057038
C      0.03080314     0.05253473     0.00194888
C     -1.37895262    -0.52333571     0.01231915
C     -1.39596285    -2.05334144     0.00428363
C     -2.82893122    -2.62295092     0.01494623
C     -2.86487065    -4.08035007     0.00755411
C     -2.86703234    -5.28243548     0.00109669
H      0.81207252     1.83683046     0.00396587
H      0.57040171    -0.30174059    -0.89195686
H      0.58733955    -0.31126267     0.88153180
H     -1.90203215    -0.14254098     0.89840980
H     -1.91881462    -0.13311991    -0.85949104
H     -0.87139247    -2.43337169    -0.88044919
H     -0.85461101    -2.44277046     0.87470415
H     -3.36301067    -2.24911058     0.89851553
H     -3.37976700    -2.23978151    -0.85422763
H     -2.88215472    -6.34383562    -0.00460679
