      14
Molecule_15296_b3lyp.xyz
O     -0.27077054     0.32276003     0.77521041
C      0.32381750     0.69928744    -0.20188687
C      1.40005369     1.73276016    -0.16056208
N      2.31709053     1.75126601    -1.31773087
C      1.44381862     2.89060438    -1.11839868
C      0.37346902     3.14149457    -2.17324981
C      0.86614018     4.02694881    -3.22870860
N      1.27182263     4.73607026    -4.04542342
H      0.11750402     0.28951758    -1.21466518
H      1.78556655     1.92535655     0.83774061
H      3.27044142     1.94393434    -1.02531213
H      1.87302868     3.80228694    -0.70719497
H      0.05949153     2.19654072    -2.62481705
H     -0.50999443     3.60017942    -1.71456943
