      17
Molecule_19914_b3lyp.xyz
C      0.17903109     1.00796197    -0.34289157
O     -0.18378055     0.10173829     0.67577441
C     -1.29403447    -0.66231616     0.36285406
C     -1.50254542    -1.65484175    -0.76293436
C     -0.34669390    -2.65169766    -1.03824856
N      0.83531178    -2.28421619    -0.22100177
C     -0.29756700    -3.04418780     0.37907593
C     -1.47668648    -2.09367558     0.72965574
H      1.01349539     1.60002632     0.04019125
H      0.50039690     0.47857049    -1.24961923
H     -0.64814124     1.68750353    -0.60278796
H     -2.22967419    -0.10771197     0.50805965
H     -2.36161243    -1.58016121    -1.41902106
H     -0.25730800    -3.24922157    -1.93613180
H      1.55398486    -2.97916085    -0.43068811
H     -0.14418804    -4.01470211     0.83164713
H     -2.30418027    -2.43080255     1.34255927
