      16
Molecule_15529_b3lyp.xyz
C     -0.12587966     1.51674897     0.02184331
C     -0.01337168     0.02855082    -0.01688962
C      0.07444615    -0.78489692    -1.06567982
C      0.15683648    -2.22804685    -0.66191544
N      0.30046676    -2.16048480     0.80144307
C     -0.01640347    -0.80662182     1.26018350
C      0.96989010    -0.32193883     2.25149362
N      1.72127314     0.08066324     3.03176785
H      0.69198713     1.95908756     0.60220864
H     -0.10390908     1.94002046    -0.98504549
H     -1.05985233     1.83188730     0.50441698
H      0.07888619    -0.46781818    -2.10171307
H     -0.74329599    -2.78089495    -0.97944986
H      1.01578644    -2.74098106    -1.11791432
H     -0.22884237    -2.86755741     1.29038220
H     -1.00316729    -0.72773083     1.75138923
