      18
Molecule_10160_b3lyp.xyz
C     -0.11242204     1.66600471    -0.23614726
C     -0.11586258     0.14384099    -0.07531468
C      0.65608527    -0.57187937    -1.19016634
C      0.66165643    -2.09206978    -1.04190267
C      1.09698029    -2.82957984    -2.31436768
O      1.34653063    -2.28679134    -3.35624391
C      1.54229802    -2.60190006     0.09577885
O      1.50467018    -3.72851029     0.51666633
H      0.90790118     2.06416897    -0.21512219
H     -0.56243829     1.96187822    -1.18996400
H     -0.67674484     2.15195981     0.56530882
H      0.30775460    -0.12159385     0.90284345
H     -1.15079694    -0.22321433    -0.06295220
H      0.23427435    -0.31657245    -2.16722396
H      1.69382091    -0.21271553    -1.21613760
H     -0.34534887    -2.48339556    -0.82976458
H      1.15907647    -3.93085712    -2.18978554
H      2.27026092    -1.85720446     0.48954192
