      17
Molecule_2583_b3lyp.xyz
C      0.18098049     1.47471868     0.25496217
C     -0.14561309     0.03044704    -0.13538122
C      0.67252787    -0.47910980    -1.32000748
C      2.06364761    -1.03494453    -1.04425358
C      0.95064898    -1.97222599    -1.41482182
C      0.47686503     0.23114453    -2.55719376
C      0.29514486     0.83439830    -3.58270389
H      1.23220357     1.57746368     0.54403822
H     -0.00271551     2.15468152    -0.58207770
H     -0.43481514     1.79990561     1.09898536
H      0.03628354    -0.63580555     0.71661355
H     -1.21154315    -0.05637024    -0.37799771
H      2.83778304    -0.84225406    -1.77704557
H      2.40035304    -1.01730433    -0.01296569
H      0.52373222    -2.60035091    -0.64015082
H      0.96335781    -2.41652360    -2.40279274
H      0.14085680     1.36291481    -4.49034604
