      18
Molecule_19481_b3lyp.xyz
C     -0.19871122     1.36585890     0.07191153
O      0.29642471     0.06297768    -0.16096943
C      0.78256150    -0.56107495     0.98656518
C     -0.15522590    -1.34536014     1.95418795
C     -0.98842468    -2.23219039     1.00968200
C      0.18916924    -2.75271142     0.12505101
C      1.32604629    -1.99383951     0.83642440
O      1.00299770    -2.18414085     2.25006981
H      0.57707514     2.02147820     0.49526986
H     -0.51659810     1.76942736    -0.89192472
H     -1.05949457     1.36250463     0.75652909
H      1.47769195     0.07490364     1.54834344
H     -0.62313162    -0.91150331     2.83773375
H     -1.49682840    -3.02793872     1.55734827
H     -1.72552481    -1.65950071     0.44209336
H      0.33203418    -3.83248152     0.19737336
H      0.09398330    -2.46871472    -0.92477116
H      2.36144393    -2.21593348     0.58005836
