      16
Molecule_9895_b3lyp.xyz
O      0.32259572     1.22920133    -0.35722440
C      0.15200120    -0.13572966    -0.08922360
C      1.14487227    -1.00834862    -0.81503316
O      2.47913560    -0.67648446    -0.40150220
C      3.21709815     0.09250518    -1.22743815
O      4.29554606     0.50741672    -0.92613991
C     -0.37074326    -0.54173297     1.26403035
C     -1.26651626    -0.60143942     0.04295245
H      1.05035744     1.54681151     0.18972984
H      0.99409636    -2.06551816    -0.58234210
H      1.04783281    -0.86678442    -1.89901085
H      2.72008731     0.28068431    -2.19793942
H     -0.02073173    -1.47065574     1.70075502
H     -0.55405775     0.25634066     1.97429455
H     -2.02661473     0.16381496    -0.05823585
H     -1.53759435    -1.57234753    -0.35777058
