      15
Molecule_18855_b3lyp.xyz
O     -0.00102589     0.02877381     0.02399497
C     -0.04087687     1.21942637     0.05266330
C     -1.14248388     2.28562125     0.02970694
C     -1.51054346     2.63771360     1.48547146
C     -0.14650669     3.01358512     2.12136745
C      0.75652348     3.29837229     0.92449627
C      0.01765869     3.24209988    -0.33638699
N      1.06589538     2.15785274    -0.02791869
H     -1.97704368     2.13418982    -0.65297677
H     -2.19658144     3.49062044     1.49686659
H     -2.00026468     1.80288305     1.99304180
H     -0.21945738     3.89970118     2.75824832
H      0.26151860     2.20478565     2.73578957
H      1.62166475     3.94156635     1.04167627
H      0.12263383     3.86859747    -1.21122762
