      11
Molecule_955_b3lyp.xyz
O      0.10156918     1.30979525     0.11820450
C      0.06949894    -0.02787462     0.06108154
N      0.08670299    -0.58048509    -1.15638613
C      0.05388575    -1.91317318    -1.18681549
C      0.00490161    -2.68415914    -0.03226946
C     -0.00823245    -1.98288706     1.16990488
N      0.02359903    -0.65274757     1.23628555
H      0.13274993     1.61794196    -0.79774345
H      0.06759295    -2.37157836    -2.17308546
H     -0.02147632    -3.76531595    -0.06568278
H     -0.04583039    -2.50637439     2.12289464
