      17
Molecule_5255_b3lyp.xyz
C     -0.00642633     1.53056343    -0.00097579
C     -0.04696364     0.00794200     0.06563426
N     -1.40372398    -0.48520167    -0.11784943
C     -1.60836121    -1.86045813    -0.03526959
C     -0.68102891    -2.86458356    -0.05848141
O     -1.30590243    -4.08614953    -0.02460888
C     -2.63397990    -3.84637954     0.03512257
C     -2.88968959    -2.51351418     0.02965480
H      1.01939067     1.89367422     0.10624171
H     -0.40439472     1.88832195    -0.95498381
H     -0.60098965     1.97712164     0.80471996
H      0.57204138    -0.41389437    -0.73665373
H      0.39266315    -0.34336453     1.01594613
H     -2.08380761     0.04129407     0.41459559
H      0.39277015    -2.88861748    -0.10845378
H     -3.26894299    -4.71647804     0.07412446
H     -3.85842530    -2.03882616     0.05920148
