      18
Molecule_11784_b3lyp.xyz
C      0.01506237     1.54112320     0.20864312
C     -0.00011606     0.03211663    -0.06398993
C     -1.39302618    -0.54119916    -0.07099026
C     -1.73622178    -2.06525023     0.04136432
C     -3.02016538    -1.38416336     0.59647969
O     -2.15460272    -0.35995242     1.18151806
C     -3.55386726    -0.66599658    -0.65924515
C     -2.44331317    -0.08834569    -1.11729061
H      1.03981409     1.92239210     0.23820677
H     -0.52714983     2.09219437    -0.56654338
H     -0.46297028     1.76023904     1.16703586
H      0.46879838    -0.18819730    -1.03162845
H      0.58983397    -0.48914711     0.69817903
H     -1.80656488    -2.65908733    -0.87239392
H     -1.15234259    -2.56674859     0.81792976
H     -3.70818624    -1.85359594     1.29795621
H     -4.56410503    -0.67109283    -1.04119644
H     -2.26847542     0.52630886    -1.98848401
