      14
Molecule_10010_b3lyp.xyz
C      0.01042164     1.59684272     0.11420520
N      0.04990283     0.15330595     0.10106743
C     -1.01880941    -0.52112303     0.00035216
N     -1.01297627    -1.93005895    -0.01525806
C      0.05536448    -2.80740697     0.06748750
O      1.21994894    -2.53364628     0.17216799
C     -2.36020953     0.00680331    -0.11029162
C     -3.48085722     0.43514893    -0.20282268
H      0.62888736     1.97205373    -0.70933252
H     -0.99357153     2.03408420     0.03193058
H      0.47669392     1.95188263     1.04050952
H     -1.92275707    -2.35718742    -0.09941653
H     -0.32378036    -3.84987909     0.02220545
H     -4.46666489     0.82428857    -0.28421442
