      17
Molecule_9530_b3lyp.xyz
C     -0.12367293     1.49473677    -0.01047220
N      0.09784187     0.04730168     0.01703924
C      0.75786340    -0.50877576    -1.15837044
C      2.17519435    -0.00475441    -1.44714901
C      0.55215471    -2.03786330    -1.27489561
O     -0.30624815    -1.85012111    -2.44748539
C     -0.18162072    -0.49047611    -2.38489396
O     -0.67907956     0.32296125    -3.09678206
H      0.79518673     2.10187815    -0.02984065
H     -0.71497266     1.74955863    -0.89310174
H     -0.69701908     1.77655889     0.87704674
H      0.63420386    -0.20177040     0.84318830
H      2.83170275    -0.21050575    -0.59402612
H      2.60142069    -0.49000979    -2.33082144
H      2.17389960     1.07312335    -1.62800934
H      1.43067703    -2.63223865    -1.53427665
H     -0.01036113    -2.48674272    -0.45519089
