      15
Molecule_14259_b3lyp.xyz
O      0.50191764     1.01573190    -0.67461749
C      0.08816723    -0.17602782    -0.07704037
C      0.23037630    -0.35732695     1.47529903
C     -1.30032887    -0.66829969     1.57592562
C     -1.43770474    -0.39307918     0.05190815
O     -2.10480222     0.87748028     0.34981688
C     -2.10556707     0.59745119     1.71809801
N     -2.61642769     1.22926900     2.66908762
H     -0.13592127     1.69326588    -0.41458828
H      0.56774307    -0.99601771    -0.61980445
H      0.86961773    -1.19389675     1.76247980
H      0.54981844     0.53399935     2.01851715
H     -1.63082651    -1.56228802     2.09741643
H     -2.00261742    -0.97570252    -0.67479106
H     -3.09028139     2.07586031     2.35016337
