      15
Molecule_19259_b3lyp.xyz
O      0.49617615     1.20506987     0.24258504
C      0.19114908    -0.12622142    -0.00114120
C     -1.25934049    -0.62084506     0.13345017
N     -2.03708976     0.03714412    -0.93910886
C     -1.24482907    -1.16929904    -1.25140521
C      0.20390391    -0.67618228    -1.49275205
C      0.34234277     0.30140665    -2.62459901
O      0.20081037     1.49770967    -2.52080510
H      0.12224643     1.71519178    -0.49140883
H      0.85582757    -0.73854856     0.61622559
H     -1.75052597    -0.99731363     1.02246225
H     -3.00900594    -0.24992535    -0.83507478
H     -1.70063086    -2.06439924    -1.65379155
H      0.89993843    -1.50858052    -1.62973008
H      0.55938867    -0.15103296    -3.61841543
