      17
Molecule_16619_b3lyp.xyz
C     -0.04743770     1.50818249     0.05338970
C     -0.08129257     0.01749456    -0.02072896
C     -0.07527434    -0.76289769    -1.10608003
C     -0.00137459    -2.20669107    -0.73027904
N      1.25653641    -2.53978089     0.01524516
C     -0.00140077    -2.25739390     0.74669536
C     -0.01205048    -0.81599564     1.26485573
O      1.13518607    -0.50671186     2.04136024
H      0.81818121     1.83451397     0.64060375
H      0.00514902     1.96706420    -0.93731215
H     -0.93604118     1.89803055     0.56711356
H     -0.06854282    -0.41511034    -2.13310597
H     -0.45282995    -2.97981954    -1.34224301
H      1.39891496    -3.54845388    -0.00336845
H     -0.47097399    -3.05151427     1.31543235
H     -0.87321421    -0.62563974     1.91714735
H      1.87291561    -0.89400969     1.54782593
