      22
Molecule_6534_b3lyp.xyz
C      0.02794342     1.51269771    -0.30319396
C     -0.04029809     0.07200980     0.22171916
C     -1.43437231    -0.54255985     0.15048995
C     -2.47843359     0.18136848     0.98556813
C     -1.88861718    -1.12844940    -1.18254795
C     -1.58722314    -2.04114559    -0.01298526
C     -0.41554971    -2.99917629    -0.05551729
O     -2.69122822    -2.58858929     0.67226837
H      1.05851048     1.88101745    -0.28977811
H     -0.33663961     1.57161963    -1.33446885
H     -0.57383310     2.19688185     0.30196678
H      0.66804440    -0.53561791    -0.34968561
H      0.30889638     0.04820651     1.26308491
H     -2.66389942     1.18763344     0.59629746
H     -3.42191085    -0.36399769     0.99541266
H     -2.14207080     0.28288899     2.02440883
H     -2.93115307    -1.00307369    -1.45719221
H     -1.19457730    -1.11087605    -2.01802210
H      0.43342317    -2.60363888    -0.61612725
H     -0.08109985    -3.24780867     0.95695343
H     -0.71862499    -3.93346631    -0.54532290
H     -3.03208034    -3.31495380     0.13884152
