      15
Molecule_4863_b3lyp.xyz
C      0.00497173     1.36066550     0.04675598
O     -0.03122752    -0.06425297     0.12792807
C     -1.25760439    -0.59548265     0.02490426
N     -2.39369202     0.02412289    -0.13730658
C     -3.34509349    -0.99067804    -0.16300429
C     -2.75747383    -2.21492093    -0.02428935
N     -3.20682404    -3.54971200    -0.04712693
N     -1.39504742    -1.94754662     0.10069973
H      1.05578178     1.63663767     0.14181791
H     -0.39628816     1.70494449    -0.91103638
H     -0.58341849     1.81019639     0.85218600
H     -4.39484993    -0.76941160    -0.28236938
H     -3.38363199    -3.91650976     0.88425914
H     -4.06718546    -3.62855525    -0.57538915
H     -0.65768059    -2.63023765     0.14315599
