      13
Molecule_11159_b3lyp.xyz
O     -0.03078997    -0.02238957     0.00384351
C     -0.01757406     1.18381211     0.00996349
C     -1.24340101     2.11138587     0.03182189
C     -0.68410073     3.54512271     0.03155633
C      0.82368512     3.34678824     0.00962121
C      1.18682252     2.05327865    -0.00207059
C      1.71427088     4.45511717     0.00310665
N      2.41163051     5.37983646    -0.00148956
H     -1.86910790     1.89850090    -0.83924666
H     -1.84471928     1.88929822     0.91765042
H     -1.00221360     4.12966370    -0.83795235
H     -0.97795306     4.12049577     0.91559172
H      2.19615871     1.66502088    -0.01793205
