      15
Molecule_1611_b3lyp.xyz
C     -0.00378711     1.41786241    -0.11872831
N     -0.00296686    -0.03593002    -0.18843937
C      1.22644601    -0.65607211     0.28600859
C     -1.21992257    -0.66216169    -0.00445815
N     -2.29143015    -0.01022995     0.25079661
C     -1.27041255    -2.15447590    -0.28329245
O     -2.24280431    -2.81637370    -0.02553539
H      0.93184377     1.79078236    -0.54556474
H     -0.85198637     1.80643602    -0.68217192
H     -0.09326547     1.78330643     0.91447595
H      1.43335982    -0.40049156     1.33667691
H      1.17991157    -1.74316977     0.21304689
H      2.07040797    -0.31139223    -0.31983945
H     -3.07387861    -0.66797730     0.24953366
H     -0.39526582    -2.60037614    -0.79710332
