      18
Molecule_19251_b3lyp.xyz
C     -0.21840410     1.51844384     0.15101703
C      0.08180039     0.02830565     0.04161147
C      0.69807730    -0.52210441    -1.25355564
C      2.12974227    -0.09643577    -1.41620087
C      1.80916542    -1.22229130    -0.47291473
C      1.24555462    -0.65670768     0.85901175
C      2.26595864     0.12568761     1.63728282
O      2.48220238     1.30944325     1.53747678
H      0.65206083     2.13259165    -0.08052354
H     -1.02729839     1.78206068    -0.54029840
H     -0.54482215     1.78195205     1.16235717
H     -0.83079040    -0.53341268     0.26692948
H      0.12640170    -0.90895525    -2.08887861
H      2.59615695    -0.40343570    -2.34675982
H      2.48133779     0.85749863    -1.03420471
H      2.21155579    -2.22013591    -0.59310061
H      0.86745424    -1.46167387     1.49688886
H      2.89079395    -0.50369423     2.31564091
