      20
Molecule_6618_b3lyp.xyz
C     -0.11725473     1.48527983    -0.04588481
C      0.02433734    -0.04292416     0.03856138
C      0.70366903    -0.47049585     1.33784603
O     -1.26640173    -0.65049155     0.02935246
C      0.81047097    -0.55056051    -1.17700921
C      0.89165926    -2.07187081    -1.42836274
C      0.24940499    -1.73863707    -2.78663161
O      0.03496871    -0.36153479    -2.39474549
H      0.85421359     1.98329320     0.04125760
H     -0.56127892     1.77450588    -1.00336406
H     -0.76529539     1.84086030     0.75970130
H      0.11942351    -0.12195925     2.19402099
H      0.77639039    -1.55974096     1.39978366
H      1.70996139    -0.04689090     1.41141799
H     -1.61267199    -0.49655538    -0.85983585
H      1.77706318    -0.03282586    -1.24915078
H      1.88819217    -2.51371137    -1.44953331
H      0.23951457    -2.64209428    -0.76610242
H      0.92760481    -1.80635346    -3.64655188
H     -0.69066035    -2.24405104    -3.03261089
