      14
Molecule_20375_b3lyp.xyz
C     -0.18321932     1.36924603    -0.27990062
C      1.23304392     1.07527891     0.15763718
C      0.21796749    -0.03225837     0.08963466
N     -0.27974143    -0.64312608     1.29049124
C     -0.55386922    -0.15160564     2.51243903
N     -0.99529142    -1.12623507     3.28018484
N     -0.98617052    -2.23582248     2.50032252
N     -0.56119507    -1.96566920     1.31023050
H     -0.82544013     1.90563591     0.40977976
H     -0.37942496     1.57463160    -1.32579710
H      2.02398801     1.07570456    -0.58329933
H      1.54034575     1.41466644     1.14059414
H      0.30246629    -0.78063493    -0.68671098
H     -0.42833974     0.87810059     2.80241787
