      15
Molecule_13466_b3lyp.xyz
C     -0.04552547     1.39529265     0.39777003
C      0.10595084    -0.02512545    -0.09947770
O      1.16747413    -0.51092473    -0.41570813
C     -1.18256393    -0.83055890    -0.12005404
C     -1.07860933    -2.33936058    -0.44864371
N     -1.54636299    -2.60441029     0.92108107
C     -1.63486107    -1.29834900     1.30844933
O     -1.92064449    -0.74552576     2.33563999
H      0.93292326     1.86697285     0.49319763
H     -0.66625171     1.97358694    -0.29657581
H     -0.56741043     1.38727865     1.36187779
H     -1.97827263    -0.28590638    -0.63455658
H     -1.75764287    -2.69889098    -1.22638674
H     -0.05553018    -2.66545676    -0.64604699
H     -1.64407364    -3.45739112     1.45130384
