      16
Molecule_13349_b3lyp.xyz
O     -0.57715894     0.70682265     0.79071096
C      0.08928525     0.95866165    -0.18026770
C      1.34805631     1.80316367    -0.15459171
C      1.28900022     2.96522255    -1.14944550
C      2.57228638     3.81218345    -1.22142050
O      2.62011212     4.20171171    -2.58361937
C      2.14369258     3.08686895    -3.28891046
O      1.14598330     2.47402669    -2.48653198
H     -0.18443264     0.57658707    -1.18667736
H      1.49906987     2.17212312     0.86476399
H      2.19513164     1.15890685    -0.42752289
H      0.42590941     3.60554087    -0.92102538
H      2.54408702     4.71048407    -0.60246075
H      3.45403130     3.21016451    -0.94847837
H      1.70820137     3.42665097    -4.23385725
H      2.95477718     2.36287307    -3.48362533
