      10
Molecule_733_b3lyp.xyz
C     -0.00179795     1.49885637     0.04389078
C      0.02674794     0.01182797    -0.04867185
C     -0.11845407    -0.83483666    -1.10119505
O     -0.01327266    -2.09279506    -0.67715338
N      0.21197405    -2.01506679     0.73213861
N      0.22816030    -0.80080536     1.05217958
H      0.94395090     1.88582335     0.43565458
H     -0.17298715     1.94395969    -0.93895844
H     -0.79746590     1.83498759     0.71591955
H     -0.29278807    -0.68287465    -2.15382462
