      18
Molecule_8029_b3lyp.xyz
C     -0.10978118     1.57717707     0.19660789
C      0.04378141     0.08540613     0.06786893
C     -1.19739818    -0.83747137     0.05668276
C     -0.46304390    -1.82172162     1.02314729
O     -0.28856613    -3.15694677     0.61945269
C      0.78130699    -0.87495426     1.05917447
C      1.76871440    -1.08169947    -0.08855029
O      0.96267418    -0.29535935    -0.99751574
H      0.86188928     2.06126266     0.33253238
H     -0.56917886     1.98770799    -0.70982955
H     -0.75041840     1.83194029     1.04710172
H     -2.10475092    -0.39854996     0.48113313
H     -1.42754475    -1.24031373    -0.93366367
H     -0.94373687    -1.87456252     2.00317455
H     -0.04664974    -3.16086629    -0.31258166
H      1.17161702    -0.59090524     2.03595941
H      2.75288591    -0.62369537     0.07249288
H      1.91861598    -2.11211073    -0.43599503
