      20
Molecule_17578_b3lyp.xyz
C     -0.00146285     1.52881186     0.04279922
C     -0.03677530     0.02524258     0.04119016
C      1.15181561    -0.82801460    -0.33960643
C      0.57575010    -0.97503372     1.05046356
C      1.36838648    -0.70869563     2.30055655
C     -0.68758487    -1.80597457     0.98273126
C     -1.89468442    -0.98375861     1.35486142
C     -1.29447203    -0.81488956    -0.01729233
H      0.97359905     1.90666113     0.36841296
H     -0.18808624     1.93188740    -0.96018907
H     -0.76259463     1.94496005     0.71242517
H      1.04654106    -1.62807033    -1.06864240
H      2.10219450    -0.30263241    -0.39568802
H      2.06503696     0.12524555     2.16365921
H      0.71296975    -0.46274897     3.14367547
H      1.96233633    -1.58475216     2.58871763
H     -0.72732487    -2.88932611     0.93645319
H     -2.83658356    -1.52385144     1.39119763
H     -1.81050527    -0.18870987     2.09170119
H     -1.85227032    -1.05221674    -0.91724215
