      19
Molecule_4070_b3lyp.xyz
C     -0.10264251     1.46199681     0.14473395
C      0.05825015    -0.02216937    -0.04290465
C      0.11278590    -0.92245647     1.16857068
C      1.32641266    -0.67208789     2.05002213
C      1.28918766     0.34571911     3.16431004
C      1.32346951    -1.12776315     3.48644992
N      0.16788391    -0.61353663    -1.17186512
O      0.13985177     0.27920796    -2.25807482
H     -0.46199626     1.93448411    -0.76904341
H     -0.79737345     1.67068521     0.96392836
H      0.85576418     1.92116406     0.41282523
H     -0.79682478    -0.77658153     1.76850700
H      0.11173042    -1.95960427     0.81908617
H      2.27370168    -0.76675421     1.52547790
H      2.17741109     0.93748036     3.35625131
H      0.35876772     0.87679743     3.33659972
H      0.41596591    -1.58294201     3.87019814
H      2.23573071    -1.54642028     3.89649336
H      0.18136806    -0.32252155    -3.00823873
