      17
Molecule_14201_b3lyp.xyz
O     -0.13941356     1.37422876    -0.03070889
C     -0.03278983    -0.01197852     0.01698440
C      0.45661455    -0.80266269     1.26613926
C     -0.36635003    -1.91823984     0.62229064
C     -1.36253034    -0.88454563     0.03673977
C     -1.37150099    -1.73225801    -1.22780402
N      0.05588158    -2.11905924    -0.87749184
C      0.71324575    -0.79244974    -1.08723750
H      0.74681791     1.74895343    -0.08081036
H      1.53179478    -0.92804138     1.42888325
H     -0.03425193    -0.46379352     2.18302144
H     -0.64129525    -2.85046956     1.10974104
H     -2.22518026    -0.47668393     0.56372720
H     -2.02489649    -2.60551277    -1.14445921
H     -1.49446080    -1.27276495    -2.21373232
H      0.53033036    -0.42414110    -2.09979648
H      1.79301115    -0.85339685    -0.91860188
