      15
Molecule_13956_b3lyp.xyz
N     -0.06159974    -1.10810731    -0.45428186
C     -0.06036276     0.02567792    -0.23383573
C     -0.04871100     1.46020973     0.06541793
C      1.34694280     2.00854939     0.19513425
C      2.41545730     1.69028852     1.25556356
C      2.98347421     3.13900772     1.04095307
C      1.88306171     3.36616984    -0.00438610
O      2.04115155     2.34895401    -1.00701915
H     -0.57323998     1.99608770    -0.73224822
H     -0.60527162     1.62205164     0.99605126
H      2.00354028     1.54698654     2.25726966
H      3.07162878     0.85466084     1.00577334
H      2.87571009     3.76803224     1.92730334
H      4.00224673     3.21663969     0.65611612
H      1.39792905     4.28599955    -0.31136192
