      17
Molecule_12331_b3lyp.xyz
C      0.06546679     1.46073148    -0.01337552
N      0.00193515     0.00595727     0.01845087
C     -0.00557567    -0.69771865    -1.19682020
C     -0.32948571    -1.98717886    -1.29996185
C     -0.72112472    -2.75841448    -0.06917251
C     -0.01342477    -2.16677746     1.15765178
C     -0.07461750    -0.64544384     1.23872444
O     -0.12860293    -0.04569932     2.29533921
H      0.92088691     1.79044461    -0.61285772
H     -0.84824511     1.88803102    -0.44177160
H      0.17764032     1.81244795     1.01082965
H      0.26594521    -0.09307760    -2.05528591
H     -0.32407960    -2.46470582    -2.27190690
H     -1.81250842    -2.72117760     0.06840252
H     -0.46615666    -3.81838459    -0.16851747
H     -0.40851280    -2.55470638     2.09801861
H      1.05294088    -2.42904679     1.12001999
