      15
Molecule_15020_b3lyp.xyz
C     -0.20751854    -1.08520816     0.06257629
C     -0.04774445     0.10324905     0.01279084
C      0.11873496     1.56119681    -0.02459347
C      1.53592108     1.94261749    -0.05341758
C      2.68831278     2.27789326    -0.05818999
N     -0.57768182     2.11853338    -1.19897757
C     -2.00433242     2.37104855    -1.00912721
C     -1.03337376     3.49882165    -1.04969300
H     -0.33757243    -2.13863590     0.09895227
H     -0.31389862     1.96735658     0.91147622
H      3.71100152     2.56413105    -0.06932631
H     -2.63362414     2.14679457    -1.86464373
H     -2.44356725     2.12459977    -0.04405970
H     -0.82109074     4.00911194    -0.11184462
H     -0.93609175     4.11847827    -1.93556413
