      17
Molecule_5327_b3lyp.xyz
C      0.02542526     1.40980411     0.19379213
N     -0.00176566     0.04162924    -0.29832999
C      1.21512663    -0.70643419    -0.05055879
C     -1.18436937    -0.67245241    -0.10041536
C     -1.32299364    -2.00533542     0.18103638
O     -2.64863461    -2.34821700     0.22573348
C     -3.35317588    -1.21993249    -0.00912633
C     -2.52854382    -0.16227398    -0.21510927
H      0.92421908     1.90731725    -0.18244219
H     -0.83980109     1.96375418    -0.17628537
H      0.02978350     1.47584915     1.29558414
H      1.33338804    -1.00554334     1.00638972
H      1.22029374    -1.61345709    -0.66314497
H      2.07898640    -0.09935203    -0.33404539
H     -0.62757200    -2.80659736     0.35447410
H     -4.42606406    -1.32274659    -0.00018727
H     -2.83288063     0.84845241    -0.43298694
