      20
Molecule_9558_b3lyp.xyz
C     -0.04781954     1.42039248    -0.03255825
O      0.29693393     0.05350331    -0.10425454
C      0.76960567    -0.52529242     1.09349591
C      2.08961207     0.07607997     1.56331418
C     -0.29328446    -0.74091277     2.20354939
O     -0.13010659    -2.16895876     2.13833016
C      0.76840374    -2.07884956     1.00281749
C      0.19910125    -2.72500179    -0.24408535
H      0.82761146     2.06979499     0.10473273
H     -0.52228625     1.67554563    -0.98317791
H     -0.76200496     1.62414496     0.77925759
H      1.97991389     1.12321475     1.86221115
H      2.46645416    -0.47567657     2.42924539
H      2.83613589     0.02087861     0.76431501
H     -0.05476863    -0.34224045     3.19717601
H     -1.30645396    -0.42736380     1.92018234
H      1.74057922    -2.52545203     1.25227752
H     -0.74560891    -2.26029251    -0.53191369
H      0.89876705    -2.62780179    -1.08032121
H      0.03002606    -3.78978798    -0.05555843
