      18
Molecule_9621_b3lyp.xyz
C     -0.08659056     1.61375925    -0.02346546
C     -0.03979009     0.09645415     0.00897781
C     -1.30453873    -0.56569283    -0.50066784
O     -1.47045663    -0.20770852    -1.86581427
C      1.24844704    -0.61377060    -0.24167685
C      0.64353439    -0.65199035     1.15987616
C      1.31877599     0.06600839     2.26232295
O      1.30161020    -0.29188140     3.41540416
H      0.87731582     2.06641345     0.21911870
H     -0.37058862     1.93892448    -1.02769517
H     -0.83009130     2.00345742     0.68119422
H     -1.22486621    -1.65782212    -0.38460845
H     -2.16171133    -0.22952320     0.10394520
H     -2.35464030    -0.46746983    -2.14016119
H      1.24347626    -1.54132140    -0.80289175
H      2.14229381    -0.01237969    -0.37524859
H      0.18006176    -1.57983903     1.48024664
H      1.87868392     0.97938710     1.95808342
