      18
Molecule_18057_b3lyp.xyz
C      0.07383184     1.57513310     0.15521698
O      1.49613676     1.52065362    -0.08144768
C      1.37952556     0.16564808    -0.57087042
C      2.46438791    -0.78322224    -0.09408291
O      2.30969414    -1.20748811     1.24503620
C      1.03068000    -1.77380223     1.46995672
C     -0.05009360    -0.69406205     1.40689005
C     -0.03775097     0.03950559     0.05161584
H     -0.16760456     2.03141590     1.12180015
H     -0.44909761     2.11974128    -0.64392824
H      1.36111629     0.16053221    -1.67206964
H      2.47668307    -1.65885529    -0.76774134
H      3.43819851    -0.28758723    -0.16047976
H      0.83198783    -2.57360324     0.73460493
H      1.06544368    -2.23293839     2.46205960
H     -1.03573707    -1.13047226     1.60162024
H      0.15406604     0.01686709     2.21474317
H     -0.80857040    -0.34440477    -0.61981601
