      15
Molecule_10109_b3lyp.xyz
N     -0.04407699     1.48643641     0.03111689
C      0.01149063     0.03365901    -0.05810489
C     -1.42021920    -0.51000594    -0.02166278
O     -2.07240905    -0.03602876    -1.19789488
C     -3.43078276    -0.01370762    -1.18511815
N     -4.04616290     0.40353900    -2.19933360
C     -1.44193311    -1.98323612     0.03384818
N     -1.45863010    -3.13677968     0.09147730
H      0.89245159     1.86539485     0.11911160
H     -0.43770806     1.86234266    -0.82590988
H      0.50165811    -0.36723357    -0.95916439
H      0.54504597    -0.36191045     0.81189500
H     -1.91904125    -0.11344252     0.87173077
H     -3.86707158    -0.37530116    -0.24541018
H     -5.05100378     0.36960360    -2.04150496
