      17
Molecule_16805_b3lyp.xyz
C     -0.02742196     1.50712107     0.06795498
C     -0.05090196     0.01482913    -0.01819547
C     -0.09425253    -0.75354079    -1.11107023
C     -0.03720188    -2.24338821    -0.80177115
O      1.07864897    -2.89035077    -1.39256434
C      0.01534798    -2.25939497     0.73173309
N      1.28832080    -1.67642768     1.21859772
C      0.03367734    -0.85961586     1.20159709
H      0.89463875     1.85712842     0.54911511
H     -0.09365537     1.96757669    -0.92106634
H     -0.86029565     1.88446394     0.67485957
H     -0.08223635    -0.39270279    -2.13386311
H     -0.91848083    -2.77701277    -1.17636553
H      1.84497440    -2.54022878    -0.91668436
H     -0.44066249    -3.06730889     1.29204114
H      1.45501421    -2.01114084     2.16630976
H     -0.39248893    -0.54910564     2.15013511
