      13
Molecule_20585_b3lyp.xyz
C      0.06556014     1.49864339     0.06841590
C     -0.04327602     0.01833667     0.06960792
C     -1.11728955    -0.83326588    -0.01147065
C     -0.50784170    -2.12604493     0.04645054
N      0.79085366    -2.05987411     0.15096217
O      1.08774058    -0.69297281     0.16578831
C     -2.48514077    -0.50641203    -0.12420874
C     -3.65428714    -0.23457284    -0.22052645
H      0.67746185     1.84454070    -0.77103292
H     -0.92953694     1.93876037    -0.01448485
H      0.53599252     1.85638863     0.99007503
H     -0.99341483    -3.09068572     0.01368210
H     -4.68534076     0.00452942    -0.30546455
