      17
Molecule_14403_b3lyp.xyz
C      0.04698555     1.50038672    -0.10698325
C     -0.04177373     0.00904073    -0.04550321
O      0.44253500    -0.72409155    -1.17540001
C     -0.23692275    -1.86907628    -0.58347770
C      0.67391128    -2.16058201     0.62063388
C      0.34318317    -0.80922167     1.29297135
N     -1.11872824    -0.88291285     1.57276671
C     -1.28749271    -0.88430919     0.11808207
H      1.09326172     1.82385996    -0.12167485
H     -0.44225228     1.88208511    -1.00791595
H     -0.43781952     1.93585880     0.77104870
H     -0.49463044    -2.64848902    -1.29804173
H      0.37710970    -3.01222473     1.24078320
H      1.71092593    -2.27628037     0.29879512
H      0.98903697    -0.41729088     2.07792225
H     -1.40589155    -1.73841299     2.04822752
H     -2.26758902    -0.71950157    -0.32820229
