      14
Molecule_2168_b3lyp.xyz
O      0.07990592     1.38271035     0.24203912
C      0.00430630    -0.00390618     0.04613941
C     -1.42245219    -0.55148568    -0.06104015
C     -1.25834780    -1.79250440    -0.97060195
N     -0.10018888    -1.44065893    -1.78498257
C      0.62716128    -0.40232857    -1.29853868
O      1.58094331     0.15450315    -1.80534330
H      0.84581133     1.67076375    -0.27759655
H      0.55812250    -0.54440356     0.83486515
H     -1.87809782    -0.79525695     0.89983129
H     -2.03860082     0.20360421    -0.55833178
H     -1.07284620    -2.70196893    -0.38324044
H     -2.13870027    -1.97211778    -1.59446044
H      0.15194164    -1.91152563    -2.63919906
