      17
Molecule_18505_b3lyp.xyz
O     -0.11682095    -0.07520081     0.15254787
C     -0.05441553     1.13390576     0.08051025
N      1.08827826     1.85579367    -0.07780179
C      2.40402677     1.26096806    -0.15244990
C      3.22671434     1.33501861    -1.49077372
C      4.38075940     1.97385028    -0.70933057
C      3.91780383     3.26360197    -0.10222193
C      3.54540080     1.96932323     0.57629736
H     -0.94735015     1.78850783     0.13982554
H      1.01197532     2.86045209    -0.10913393
H      2.28690608     0.22532859     0.16545390
H      3.44347821     0.34413688    -1.89407390
H      2.79602928     1.95288381    -2.28550756
H      5.42931224     1.73349711    -0.82637535
H      4.67370341     3.84280592     0.41794992
H      3.17780187     3.87560096    -0.61578344
H      3.85134939     1.76197034     1.59477846
