      13
Molecule_9112_b3lyp.xyz
C      0.11486366     1.36114731    -0.07383213
N      0.00462482    -0.07634010    -0.23170870
C     -1.10125220    -0.60199735     0.02533873
O     -1.21730738    -1.97161456    -0.12181548
C     -2.41992635    -2.54762836     0.15655998
O     -3.40896303    -1.98376642     0.52304450
C     -2.29352863    -4.06038527    -0.08124317
O     -3.21891138    -4.79919784     0.09387045
H      0.91206155     1.57998187     0.64417819
H      0.41582307     1.80242688    -1.02965835
H     -0.81113907     1.84846987     0.26554800
H     -2.02121716    -0.11906730     0.36048738
H     -1.29275953    -4.39093070    -0.42034720
