      19
Molecule_12786_b3lyp.xyz
C     -0.21628441     1.34297609     0.10889100
O      0.36962798     0.08124762    -0.11325188
C      0.76916641    -0.55752774     1.06326952
C     -0.30401232    -1.21059008     2.01846885
C      0.45276408    -2.52937551     1.84427637
N      0.34916932    -2.84289922     0.39808288
C      1.41921412    -1.92922020     0.87400334
C      2.86605628    -2.19121665     0.59148012
H      0.47497500     2.02905204     0.62517506
H     -0.46530412     1.76324848    -0.86845088
H     -1.13720899     1.27061775     0.70693158
H      1.43606337     0.09630509     1.64961568
H     -0.28967998    -0.79817988     3.02927696
H     -1.32417123    -1.22989613     1.62831831
H      0.61283405    -3.31096642     2.57706545
H      0.79650881    -3.74918427     0.25471780
H      3.10946912    -1.96448993    -0.45279538
H      3.51071904    -1.57390294     1.22656027
H      3.12007594    -3.24109062     0.77536476
