      19
Molecule_1088_b3lyp.xyz
C     -0.01627091     1.54007544     0.06497965
C      0.00209545    -0.00045952     0.06371993
C      0.63792365    -0.51518165     1.36743577
C     -1.44213257    -0.52137618    -0.04134569
C      0.79556651    -0.54614074    -1.16214995
C      2.23380432    -0.08643765    -1.22482934
O      3.18555235    -0.78448648    -0.97848923
H      0.98259019     1.96380019     0.20888944
H     -0.41913469     1.93581014    -0.87403352
H     -0.64783430     1.91119253     0.87909191
H      0.07839363    -0.15176275     2.23587197
H      0.63827477    -1.60960444     1.40168611
H      1.67495401    -0.18186497     1.47196533
H     -1.93069488    -0.16110592    -0.95336056
H     -1.46887079    -1.61616335    -0.05550123
H     -2.03778449    -0.18280415     0.81344763
H      0.79513129    -1.64061429    -1.14262803
H      0.29349072    -0.21280284    -2.08085725
H      2.37837849     0.97778929    -1.52132678
