      13
Molecule_15451_b3lyp.xyz
O     -0.01777107     0.03570547     0.07755938
C     -0.05148733     1.23013086     0.04870096
C     -1.29567163     2.12274696    -0.01316402
C     -0.73635431     3.51678142     0.00507656
C      0.59492119     3.55113377     0.04554353
C      1.20870642     2.16727569     0.04765403
C      2.09598627     1.90469219     1.17686943
N      2.79272918     1.71653112     2.07941793
H     -1.87109174     1.88952061    -0.91824569
H     -1.95703076     1.89959405     0.83353356
H     -1.36981372     4.39553350    -0.01581133
H      1.20641906     4.44381578     0.07227706
H      1.77071092     1.96168798    -0.87463573
