      16
Molecule_14896_b3lyp.xyz
N     -0.00118711    -1.16197808    -0.01868023
C      0.00320711    -0.00680065    -0.01701659
C     -0.00819022     1.46103880     0.02975432
C     -0.73327459     1.96977517     1.29862498
C     -0.51655850     3.45353927     1.45304194
C      0.41859114     4.11886905     0.77763796
C      1.37383555     3.43964690    -0.17280947
N      1.35813664     1.97435169    -0.10983857
H     -0.56887519     1.81163232    -0.84711950
H     -1.80382186     1.74170052     1.23109901
H     -0.36497979     1.42604012     2.17935174
H     -1.17326777     3.97613246     2.14316459
H      0.51656027     5.19615546     0.88699437
H      1.15470928     3.75181603    -1.20563335
H      2.40106377     3.76912625     0.02090693
H      1.90295549     1.66580927     0.69005559
