      17
Molecule_19410_b3lyp.xyz
O      0.14433598     1.37837678    -0.04555734
C      0.02681721    -0.01526626    -0.03249500
C      0.31420163    -0.72805342     1.30409828
N     -0.67928289    -0.15676959     2.25010120
C     -1.06850376    -1.27895445     1.34764060
C     -1.40488394    -0.63387870     0.02361915
C     -2.67904263     0.00791998    -0.42190579
C     -2.15668474    -1.22493595    -1.12865487
H     -0.28000472     1.67515592     0.77172579
H      0.61876153    -0.40270183    -0.86597890
H      1.24973027    -1.14112723     1.66011996
H     -0.48030983    -0.55135937     3.16871068
H     -1.42252550    -2.22039073     1.74937216
H     -3.55801632    -0.09107366     0.20648347
H     -2.59139517     0.96231152    -0.93123252
H     -1.73701254    -1.11098359    -2.12357401
H     -2.68198692    -2.16239756    -0.97334016
