      18
Molecule_16898_b3lyp.xyz
O     -0.16834193     1.46242537    -0.14880499
C      0.02217954     0.05627458    -0.01452978
C     -1.37545976    -0.56399885     0.10628260
C     -1.34679957    -2.08857191     0.01356777
C     -1.77453768    -2.77588281    -1.26257841
C     -0.30681237    -2.71549487    -0.88521169
C      0.61848425    -1.79175956    -1.58814579
C      0.77293220    -0.52825214    -1.19241497
H      0.69778701     1.88184034    -0.15638009
H      0.58826580    -0.15403917     0.91015082
H     -1.83461652    -0.24271862     1.04593827
H     -1.97846468    -0.13476262    -0.70074901
H     -1.56457862    -2.61683973     0.93614799
H     -2.28021707    -3.73339250    -1.19398574
H     -2.10765633    -2.14507622    -2.08037798
H      0.13153052    -3.65604974    -0.56074315
H      1.17541577    -2.17758062    -2.43922775
H      1.45695884     0.13931224    -1.71254754
