      22
Molecule_8700_b3lyp.xyz
C     -0.00328611     1.59481638     0.27120899
C      0.00919105     0.08753857    -0.00636983
C      0.76893424    -0.36677311    -1.27397038
C      2.22641033     0.12667912    -1.29453673
C      0.71821036    -1.92732114    -1.31934480
C      1.32304104    -2.61970957    -2.54734263
C      0.05955199     0.14077286    -2.52650184
O     -1.09786431     0.47209434    -2.58337943
H      0.99848416     1.98956074     0.46655369
H     -0.43421327     2.14964082    -0.56665054
H     -0.61263846     1.80817721     1.15491883
H      0.44327356    -0.43790149     0.85363119
H     -1.02453950    -0.26054499    -0.09905463
H      2.77741887    -0.27423906    -0.43739620
H      2.74612327    -0.19047974    -2.20364257
H      2.28567122     1.21765992    -1.25010150
H      1.22699260    -2.28902553    -0.41674390
H     -0.33155477    -2.22813671    -1.22233025
H      0.80597407    -2.34751960    -3.47276555
H      2.38418483    -2.38632494    -2.67494762
H      1.24063664    -3.70550923    -2.43858525
H      0.69794753     0.17216643    -3.44061533
