      15
Molecule_3345_b3lyp.xyz
C     -0.02266839     1.43213628     0.02166198
C      1.43296146     1.91154945     0.00962232
C      2.21231859     1.25505389     1.12650851
O      1.59735252     1.28085475     2.41812708
C      1.68520363     0.02257985     1.73206051
C      0.37610810    -0.56106785     1.22741987
O     -0.08260378     0.01483129     0.01797610
H     -0.54551843     1.83986391     0.89941742
H     -0.54744441     1.76407741    -0.87795135
H      1.90078260     1.64615630    -0.94602844
H      1.47642172     3.00314574     0.10706979
H      3.28861512     1.42894232     1.13763909
H      2.37370452    -0.68388015     2.19542227
H      0.50420394    -1.62863919     1.02199435
H     -0.38264108    -0.45581812     2.02092625
