      15
Molecule_19996_b3lyp.xyz
N      0.05124644    -1.10976679     0.54624935
C      0.08507780     0.02644760     0.33689058
C      0.08527956     1.43901715     0.04149727
N      0.73289069     2.33098697     1.02504515
C      1.33514490     2.20082475    -0.29747923
C      2.69449652     1.57281755    -0.36320198
C      3.78321208     2.13938689     0.47576471
N      3.22420230     0.81256912     0.76900915
H     -0.83419951     1.77969615    -0.42726660
H      0.20065991     3.19061254     1.12146290
H      1.17751414     3.01069064    -1.00943879
H      2.94147280     1.15795053    -1.33827889
H      4.80573073     2.14236017     0.10975436
H      3.52607429     2.96431266     1.13559079
H      2.57497840     0.88888172     1.55082470
