      12
Molecule_23752_b3lyp.xyz
F      0.02312758     0.01648079     0.00327907
C     -0.02150245     1.34861349     0.01088760
C     -1.23497248     2.01600215     0.03027896
C     -1.24986447     3.41022561     0.03783627
C     -0.05439206     4.12336494     0.02596959
C      1.16516653     3.44776572     0.00645625
C      1.17572798     2.06280116    -0.00099699
F      2.32652756     1.39053564    -0.01959508
H     -2.14922260     1.43452778     0.03916246
H     -2.19851248     3.93390922     0.05300932
H     -0.06435730     5.20700381     0.03182082
H      2.11117122     3.97599750    -0.00312097
