      16
Molecule_8306_b3lyp.xyz
O      0.33229424     1.35791405     0.26168761
C      0.12226813    -0.01001533    -0.04266880
C     -1.30707343    -0.46542135     0.27313998
C     -1.52931368    -1.93900841     0.00550113
C     -2.97376113    -2.47284794    -0.01355285
C     -2.68372118    -2.74551941    -1.49008117
O     -3.24717959    -3.19623253    -2.43336615
O     -1.40014366    -2.26252441    -1.43109847
H     -0.15527125     1.88330236    -0.38048279
H      0.35942468    -0.23696281    -1.09159422
H      0.83382051    -0.56610369     0.57830471
H     -1.52358892    -0.25887474     1.32827081
H     -2.02106949     0.11746512    -0.32431739
H     -0.82760690    -2.56284739     0.56748228
H     -3.17397206    -3.36786680     0.57730547
H     -3.75830017    -1.73390334     0.16078691
