      12
Molecule_120_b3lyp.xyz
C     -0.04271613     1.37837249    -0.04136654
O     -0.00256618    -0.00750145     0.27198837
C     -1.15418995    -0.68093501     0.07566972
N     -1.22880734    -1.91137057     0.32094184
C     -2.49961170    -2.56197013     0.08422589
H      0.95286033     1.77034178     0.16999168
H     -0.27569360     1.54606009    -1.10021629
H     -0.77551428     1.91093156     0.57746232
H     -1.98427283    -0.06346065    -0.30557568
H     -2.85894803    -3.01761579     1.01411885
H     -3.28595136    -1.88871793    -0.29611194
H     -2.36757928    -3.37658330    -0.63716530
