      16
Molecule_21096_b3lyp.xyz
C     -0.04741691     1.42385911    -0.02638781
N     -0.03403195    -0.01814811     0.04864943
N     -0.10094781    -0.77744572    -1.07767964
N     -0.08848912    -2.02106879    -0.70178894
C      0.00520685    -2.09896459     0.65643664
C      0.03856244    -3.39777066     1.39241149
C      0.04509158    -0.80713809     1.14808537
N      0.06039558    -0.27949644     2.44073450
H      0.94139809     1.84803237     0.18262099
H     -0.34075904     1.69383742    -1.04081604
H     -0.76795970     1.82890979     0.68975883
H      0.76045417    -3.37865554     2.21778988
H     -0.93723149    -3.66681625     1.81545192
H      0.33162029    -4.19604894     0.70670777
H      0.10391519    -1.00997190     3.13937769
H      0.81407781     0.37918525     2.60362247
