      17
Molecule_14690_b3lyp.xyz
C      0.20432226     1.52377106     0.14540678
C      0.32889719     0.00225332     0.04927170
C      0.21515036    -0.50187216    -1.40429542
C      0.33437888    -1.95022167    -1.52295234
C      0.43914127    -3.14638907    -1.59247211
C      0.56129249    -4.59871678    -1.69053334
C      1.95560070    -5.06335823    -1.67664381
N      3.04658811    -5.44114009    -1.66630534
H      0.98997230     2.02424807    -0.43138041
H     -0.76124233     1.86940923    -0.24040095
H      0.28783573     1.86043222     1.18283078
H      1.28900509    -0.32554203     0.46252516
H     -0.44829191    -0.47955907     0.65288538
H     -0.74531425    -0.17999380    -1.82861906
H      0.99045331    -0.02414701    -2.01792548
H      0.03210969    -5.08911925    -0.86305783
H      0.09035577    -4.96542513    -2.61196271
