      17
Molecule_7651_b3lyp.xyz
C     -0.17120182     1.52158307     0.33180325
C      0.61147178     0.22646737     0.33789838
C      0.36489775    -0.78873435    -0.80139873
C      1.86724962    -0.60844153    -1.10442380
O      1.99412995     0.41512319    -0.09015736
C      2.73367824    -1.84273804    -0.86099694
N      3.54512305    -1.73704896     0.22017185
O      2.66111773    -2.81174717    -1.59268856
H     -0.16224793     1.97632450    -0.66349797
H     -1.21120982     1.33701653     0.62268177
H      0.25997856     2.23521809     1.04086858
H      0.58961439    -0.22821367     1.33727236
H      0.06224067    -1.79438687    -0.50987092
H     -0.29808763    -0.42366057    -1.58753404
H      2.10741485    -0.22483790    -2.10200111
H      3.56093567    -0.87321642     0.73716861
H      4.18947406    -2.48037798     0.43031934
