      19
Molecule_5614_b3lyp.xyz
C     -0.00521846     1.57101743     0.07950897
C     -0.03502663     0.03659150    -0.03785045
C      0.68914066    -0.49203459    -1.24371406
C      0.11063451    -0.89681067    -2.42625856
N      1.10774913    -1.29004207    -3.28189877
C      2.32349235    -1.14720375    -2.66182985
C      2.10731825    -0.65311579    -1.39539921
C      3.16173509    -0.35646762    -0.37116730
H      1.02153670     1.94494713     0.14363728
H     -0.47007830     2.03542158    -0.79591009
H     -0.54234153     1.90941524     0.97216594
H      0.39569099    -0.39768735     0.87387555
H     -1.07874788    -0.29838928    -0.06690339
H     -0.92663031    -0.94094289    -2.72009742
H      0.96887820    -1.64367915    -4.21122292
H      3.24093378    -1.41278322    -3.16361945
H      3.23024134     0.71396560    -0.14127052
H      2.96479332    -0.87097489     0.57728777
H      4.14791836    -0.67841987    -0.71912968
