      17
Molecule_20789_b3lyp.xyz
C      0.01362757     1.63056792     0.31467414
C     -0.02317478     0.14507688    -0.08641333
C     -1.40759652    -0.40511910    -0.16556752
C     -2.19028034    -0.85700874    -1.18917916
C     -1.88030530    -0.96366832    -2.64939596
C     -3.40139756    -1.21095979    -0.52550125
N     -3.35755848    -0.99538229     0.76388330
O     -2.08639696    -0.48082856     0.99906140
H      1.04649834     1.98466383     0.37847608
H     -0.51561126     2.24718884    -0.41788912
H     -0.46177036     1.77970048     1.28746069
H      0.46168182     0.00434461    -1.05720380
H      0.55049126    -0.44276965     0.64035264
H     -2.00154559    -1.99026681    -3.01220929
H     -2.54140122    -0.32875271    -3.24993733
H     -0.85203016    -0.65950539    -2.86193057
H     -4.30537293    -1.62014569    -0.95687443
