      19
Molecule_10656_b3lyp.xyz
C      0.63179179     1.50750144     0.41873357
C     -0.12542582     0.21789557     0.07693420
C      0.35085393    -0.40241200    -1.22156142
N      1.70713428    -0.97893615    -1.26395439
C      0.58033170    -1.88777830    -1.42016664
C      0.34237761    -2.91988407    -0.34622310
C     -0.08018908     0.28893848    -2.47419554
O      0.49298419     0.17811471    -3.53386802
H      1.70376290     1.30581600     0.49646978
H      0.49023580     2.27454089    -0.35106546
H      0.28846318     1.92481790     1.36981558
H     -0.01185055    -0.49897851     0.89354968
H     -1.20142067     0.42217000    -0.00703385
H      2.09880036    -0.76560019    -2.18239382
H      0.37789412    -2.23130555    -2.43393025
H      0.64868814    -2.55584237     0.63613288
H     -0.71194984    -3.21263607    -0.30536135
H      0.93117808    -3.81759191    -0.56382156
H     -0.98773069     0.92405800    -2.37753245
