      17
Molecule_6004_b3lyp.xyz
C      0.44628061     1.57862241     0.57853389
C      0.23873395     0.10222373     0.16017972
C      0.51251720    -0.82894750     1.36673754
C     -1.13031753    -0.09249533    -0.31942305
C     -2.26050014    -0.24923509    -0.70316512
C      1.31260669    -0.22241552    -0.92165792
N      0.85203034    -0.63089791    -2.12819207
O      2.49460038    -0.10395506    -0.66048844
H      1.48637918     1.71856950     0.87947227
H      0.22581854     2.25645435    -0.25052981
H     -0.21311258     1.82967535     1.41339220
H     -0.14706570    -0.57038352     2.19914998
H      0.33951264    -1.87560496     1.10225298
H      1.55322477    -0.71208460     1.67536113
H     -3.26232913    -0.38442637    -1.02959023
H     -0.13331066    -0.71797528    -2.31024714
H      1.52245563    -0.84789672    -2.84683938
