      17
Molecule_1757_b3lyp.xyz
O      0.01740767     1.47121163     0.20611225
C     -0.00639174     0.05279101     0.27723003
C     -1.34775735    -0.53201609    -0.17823369
C     -1.39824836    -2.03951687    -0.08548067
O     -0.44727233    -2.59430848    -0.96418100
C     -1.67248412    -2.70790893     1.23615379
C     -2.71134521    -2.74390706     0.12330099
H     -0.03678167     1.71737721    -0.72270890
H      0.80941724    -0.39788089    -0.30359111
H      0.16851895    -0.19404260     1.32989764
H     -2.15118341    -0.09821738     0.42569237
H     -1.53412136    -0.24083724    -1.22130778
H     -0.36505497    -3.53490825    -0.78119794
H     -1.14404635    -3.63005090     1.46089256
H     -1.86648625    -2.09150196     2.10780975
H     -3.61520296    -2.15472180     0.23758743
H     -2.85789480    -3.68730044    -0.39353923
