      13
Molecule_4646_b3lyp.xyz
C     -0.03826361     1.48239535     0.01885331
C     -0.00059116    -0.00768482    -0.02749979
N     -0.03521059    -0.74635462    -1.11066694
C      0.02283571    -2.05660986    -0.67103164
C      0.09394786    -2.10237134     0.70153283
N      0.07721553    -0.79236526     1.09754793
C      0.00839656    -3.16645930    -1.55650059
N     -0.00190845    -4.08655435    -2.25907871
H      0.86423692     1.89610368     0.48238382
H     -0.10731163     1.85908767    -1.00182830
H     -0.90224092     1.84829548     0.58461368
H      0.15163916    -2.92361241     1.39533509
H      0.11604315    -0.46657231     2.04959900
