      15
Molecule_11500_b3lyp.xyz
N     -0.12390963     1.36377127     0.33159649
C      0.07326345     0.05195366    -0.08393906
N      1.16665313    -0.55826406    -0.32419663
C      2.41080350     0.10827599    -0.20497877
C      3.61920410    -0.77338239     0.04054130
C      3.42619434    -0.14544568    -1.30644113
C     -1.15490355    -0.71076078    -0.19952244
N     -2.15589136    -1.28262591    -0.28766775
H      0.58397873     2.02855471     0.05993330
H     -1.06347168     1.71809259     0.23820361
H      2.44320832     1.09045607     0.26591730
H      4.39489839    -0.38697143     0.69161018
H      3.41822663    -1.83325384     0.13708213
H      3.09756491    -0.78153372    -2.11909843
H      4.06384707     0.68185630    -1.59699188
