      10
Molecule_3930_b3lyp.xyz
O     -0.06229589     0.00224924    -0.00106580
C      0.02184667     1.19209488     0.00769531
N      1.24789069     1.90084164    -0.00037741
N      2.45933918     1.32689640    -0.01825268
C      3.28338318     2.35992624    -0.01948087
C      2.52548807     3.55786112    -0.00169042
N      1.24255993     3.24675126     0.01007716
H     -0.81180854     1.91164575     0.02210810
H      4.35274700     2.21768666    -0.03249853
H      2.85213118     4.58585990     0.00262931
