      15
Molecule_15526_b3lyp.xyz
N      0.06881691     1.35289630    -0.08243562
C     -0.01304272    -0.00377778    -0.04103295
C     -1.09094563    -0.82970990    -0.02325824
C     -0.60905841    -2.25706245    -0.07450809
O      0.82147413    -2.17859514     0.00119962
C      1.24334932    -0.83803344    -0.10255047
C     -2.48313345    -0.46765352     0.03073079
O     -3.40590049    -1.26252632     0.03132976
H      0.93351889     1.78811368     0.19469004
H     -0.75739569     1.89885698     0.10076786
H     -0.97838650    -2.86035857     0.76402137
H     -0.90912352    -2.76671947    -1.00195599
H      1.78285752    -0.65414219    -1.04800244
H      1.93654083    -0.59455092     0.71907623
H     -2.69078095     0.62921269     0.07971444
