      14
Molecule_4643_b3lyp.xyz
C      0.07253978     1.48476161    -0.01538720
C     -0.07108757     0.00628755     0.01701427
C     -1.12402310    -0.83711283    -0.13031767
C     -0.60776063    -2.17904829     0.00937405
C      0.73210741    -2.02796153     0.23231065
O      1.06963555    -0.71720718     0.23953303
C     -1.32871267    -3.39255451    -0.06703433
C     -1.95909762    -4.41633777    -0.13528555
H      0.76052447     1.80341870    -0.80645401
H     -0.89954327     1.94664236    -0.19993927
H      0.46213938     1.87060109     0.93329443
H     -2.15029244    -0.56398222    -0.31597945
H      1.53048854    -2.73194960     0.39570438
H     -2.50894011    -5.32243074    -0.19431334
