      18
Molecule_7850_b3lyp.xyz
C     -0.20662072     1.39269267     0.36621395
C      0.07979926    -0.07174000     0.13070038
C      1.41704210    -0.53000628    -0.40190915
C      1.02240864    -0.84467478     1.01965838
N      1.72407290    -0.16575657     2.07068910
C      1.09822080     0.02831791     3.28989936
N      1.96013432     0.45798894     4.29572255
O     -0.08505892    -0.17445479     3.47647071
H      0.69535711     1.92561431     0.67892359
H     -0.57982317     1.86917587    -0.54661120
H     -0.95687880     1.51550468     1.15307997
H     -0.77932993    -0.64855714    -0.20018954
H      1.46125337    -1.34554747    -1.11497343
H      2.17722250     0.23219842    -0.54286510
H      0.73726225    -1.87059337     1.24338220
H      2.72369045    -0.30409429     2.09579781
H      2.74112493     1.03580066     4.02151685
H      1.46059488     0.80786708     5.09956353
