      14
Molecule_625_b3lyp.xyz
O     -0.04790799     1.26789943    -0.49285694
C      0.00228326    -0.00661897     0.14071127
C     -1.38506933    -0.59030092     0.12379139
C     -1.90167443    -1.25170085    -1.13957119
C     -1.58695024    -2.07771837     0.08045381
O     -0.43964049    -2.88146293     0.10120060
H      0.82862223     1.65933041    -0.43318295
H      0.69277211    -0.68824237    -0.37347837
H      0.34956046     0.08619464     1.18216606
H     -2.10925010    -0.02756354     0.70557733
H     -2.93685250    -1.10595447    -1.42769168
H     -1.20217661    -1.31832970    -1.96655501
H     -2.42555211    -2.47863215     0.64989212
H     -0.58521617    -3.61674864    -0.50276876
