      20
Molecule_15825_b3lyp.xyz
C      0.08632218     1.77390898    -0.00515758
C      0.03187126     0.23875750     0.04606540
C      0.63951545    -0.43435732    -1.19748603
C     -0.12446443    -0.18011082    -2.49138859
O      0.50594519    -0.93726962    -3.51446079
C      0.74112746    -0.25885930     1.28904175
C      0.03451365    -0.52937213     2.54641705
O      0.46261857    -1.59866248     1.69905942
H      1.11920900     2.12603887    -0.11030004
H     -0.48534158     2.17088670    -0.84826108
H     -0.32429413     2.21229200     0.91014995
H     -1.01721559    -0.07662684     0.13041118
H      1.67777547    -0.10376352    -1.33211813
H      0.67105691    -1.51684535    -1.03326990
H     -1.17766641    -0.48202709    -2.36325843
H     -0.12124381     0.89241969    -2.74031215
H      0.04207191    -0.77126031    -4.34015136
H      1.79932083     0.00834676     1.35224407
H      0.55811826    -0.44756253     3.49802388
H     -1.04356543    -0.37884363     2.59710402
