      14
Molecule_7231_b3lyp.xyz
C      0.13133175     1.48994447     0.00791186
C      0.01800726    -0.00805045     0.00149318
O      0.95992872    -0.76948791    -0.01181581
C     -1.43085938    -0.56463284     0.01281677
O     -2.38903394     0.17046384     0.02578682
N     -1.41793252    -1.94007562     0.00499100
C     -2.48417727    -2.83405908     0.01032740
N     -3.70049896    -2.48116514     0.02419087
H      1.18055520     1.78437068    -0.00170519
H     -0.39533228     1.90407915    -0.85768177
H     -0.37665211     1.89505566     0.88882336
H     -0.48028405    -2.32255498    -0.00617854
H     -2.11714718    -3.86789592     0.00087101
H     -4.29758219    -3.30683459     0.02531748
