      17
Molecule_9312_b3lyp.xyz
C      0.00980531     1.46450466    -0.14343642
C     -0.14914859    -0.05757780    -0.12359247
C     -1.48961470    -0.49115558     0.48413452
N     -1.66506498    -1.93409010     0.52493476
C     -2.35808536    -2.61334123    -0.43329643
O     -2.93019663    -2.08487542    -1.36996343
C     -2.36406635    -4.05841660    -0.22760149
C     -2.38490493    -5.25258142    -0.08905705
H      0.96903230     1.75550208    -0.58100844
H     -0.78278686     1.93686010    -0.73362134
H     -0.03525780     1.88392290     0.86800717
H     -0.08429763    -0.45866170    -1.14119130
H      0.67130555    -0.51245976     0.44639639
H     -1.58829744    -0.09932864     1.50357640
H     -2.31638747    -0.09279556    -0.10915630
H     -1.18265365    -2.47182161     1.22712346
H     -2.41273454    -6.30928453     0.02068417
