      13
Molecule_21795_b3lyp.xyz
O     -0.41074236     0.87039236     0.95318725
C      0.07066333     1.11130092    -0.12174327
C      1.46257693     1.69926106    -0.32742975
C      1.42984594     2.87631154    -1.25025158
C      1.27446926     4.21658538    -0.97469457
N      1.27999310     4.80138069    -2.19442337
N      1.42372351     3.89610966    -3.17809757
N      1.51246368     2.73048094    -2.60714516
H     -0.48167566     0.91898796    -1.06788941
H      1.88077676     1.94951586     0.65014537
H      2.08280990     0.91866502    -0.78574657
H      1.17159413     4.77248375    -0.05815570
H      1.20380100     5.77816211    -2.43048741
