      22
Molecule_13373_b3lyp.xyz
C      0.07712862     1.53304938    -0.11028092
C      0.00978434     0.00616548    -0.19335927
C     -1.37299044    -0.55074160     0.19842677
C     -1.47099389    -2.04619739     0.12306494
C     -1.64892824    -2.88995942     1.14260522
C     -1.75645966    -4.33023827     0.70510757
C     -1.28502686    -4.27873950    -0.77137289
C     -1.43516856    -2.79734667    -1.19666041
H      1.06838235     1.90472343    -0.38824326
H     -0.65357838     1.99897874    -0.78104837
H     -0.13770941     1.88453356     0.90515505
H      0.26057517    -0.31568900    -1.21136636
H      0.76857356    -0.43702137     0.46309449
H     -1.61592469    -0.21897179     1.21539740
H     -2.12818787    -0.10000545    -0.46317878
H     -1.75534245    -2.58490065     2.17911390
H     -1.15069911    -5.01217254     1.31329632
H     -2.79356163    -4.68662963     0.79148723
H     -0.22969193    -4.56497815    -0.82400492
H     -1.83661385    -4.96513694    -1.41898450
H     -2.36880858    -2.62149766    -1.75199469
H     -0.62525883    -2.47048107    -1.85861487
