      12
Molecule_3413_b3lyp.xyz
O      0.03740879    -0.00748078    -0.05892058
C     -0.00536711     1.19747118    -0.00367243
C     -1.21781348     2.06459753     0.08169125
C     -0.87344698     3.35750031     0.01264038
C      0.61499935     3.51785445    -0.06184874
N      1.27208994     2.99836992     1.16989201
C      1.18001602     2.15235593    -0.05679474
H     -2.21279659     1.65632072     0.20052337
H     -1.55307906     4.20032339     0.05796859
H      1.06835178     4.34239750    -0.59922158
H      2.22320435     3.36662466     1.21507027
H      2.08340313     1.86286489    -0.57920705
