      16
Molecule_8449_b3lyp.xyz
C      0.03229459     1.50454474     0.05360631
C     -0.01299778     0.00681471    -0.03452302
C      0.64127760    -0.81295389    -1.18030856
C      0.74128436    -1.82231979    -0.01524229
O      0.88663995    -0.69647111     0.90584356
C     -0.73871568    -2.16529670     0.22718721
O     -1.27166801    -3.22867652     0.36970093
C     -1.33841732    -0.73989812     0.23688650
H      1.05011023     1.87081462    -0.10631767
H     -0.62253941     1.94905062    -0.70280706
H     -0.30690071     1.84164777     1.03829589
H      0.04875930    -1.06630836    -2.06375323
H      1.62212970    -0.41989439    -1.45245951
H      1.49099538    -2.60504417     0.07433081
H     -1.75917817    -0.48668536     1.21341903
H     -2.11049761    -0.61739348    -0.52815596
