      11
Molecule_23800_b3lyp.xyz
F      0.04266409     0.03415245     0.00268601
C     -0.02838619     1.35986267     0.01089414
C     -1.21821068     2.00250257     0.03038925
C     -1.23599904     3.45477417     0.03854078
O     -2.20991352     4.18169377     0.05569057
N      0.06288577     4.00572713     0.02416929
N      1.23646413     3.37667639     0.00496501
C      1.20681548     2.07540602    -0.00178600
H     -2.16252697     1.47475434     0.04020167
H      0.11424354     5.01639865     0.02904892
H      2.15466614     1.55197232    -0.01738552
