      15
Molecule_17599_b3lyp.xyz
C     -0.02848754     1.38095910    -0.24061345
C      0.06449928    -0.12259330    -0.30401909
O      1.10283914    -0.73888467    -0.33288466
C     -1.29815746    -0.85776396    -0.28961657
O     -2.32680786    -0.26167364    -0.04463326
N     -1.23451245    -2.18080332    -0.64890521
C     -0.50281256    -3.25411277    -0.01676445
C     -2.00623539    -3.25153813    -0.06659411
H      0.97281261     1.81103296    -0.21376944
H     -0.58088349     1.75546303    -1.10912845
H     -0.60629678     1.68309895     0.63753863
H      0.06168624    -3.89851331    -0.68386798
H     -0.02191847    -3.04373742     0.93347284
H     -2.55487448    -3.02210696     0.84303781
H     -2.52109033    -3.90098490    -0.76829792
