      16
Molecule_19088_b3lyp.xyz
C      0.18280960     1.38963827    -0.42126537
C      1.34297065     2.13533036     0.20297257
O      1.26002599     2.44426078     1.59607876
C      2.24672892     1.50027840     1.17374468
C      2.07367952     0.06096466     1.60978732
C      0.77601158    -0.58755273     1.17713694
O     -0.44443498     0.02460735     1.60001095
C     -0.12774751     0.04749933     0.20636565
H     -0.71428676     2.02161945    -0.39353347
H      0.41298205     1.22577434    -1.48254508
H      1.73435890     2.95254607    -0.40541569
H      3.26991046     1.87354581     1.24399395
H      2.90413731    -0.52470571     1.19328295
H      2.16725185    -0.00317593     2.70161195
H      0.76916235    -1.67651675     1.24976174
H     -0.76639110    -0.59751719    -0.39964647
