      12
Molecule_21804_b3lyp.xyz
O     -0.24708269     0.05456777     0.27646600
C     -0.03172442     1.20862458     0.02527110
C      1.36188329     1.75334358    -0.28896999
C      1.33734453     2.82822617    -1.32194006
N      1.97416464     2.72936318    -2.45962710
O      1.66788245     3.93244414    -3.10931730
C      0.87506234     4.60923073    -2.28122275
N      0.62471194     4.00267993    -1.16521343
H     -0.83649355     1.97372755     0.02850473
H      1.74576133     2.17855241     0.64909361
H      2.01484431     0.93277267    -0.58889071
H      0.52709439     5.57717923    -2.61107716
