      21
Molecule_5954_b3lyp.xyz
C      0.19487478     1.52227480     0.00829629
C     -0.04526492     0.01042575     0.00252844
C     -1.52272384    -0.44647111     0.01425388
C     -2.24665183     0.02627648     1.28818541
C     -2.27091031     0.03982662    -1.24041359
N     -1.46791409    -1.92619212     0.00579026
C     -2.52844506    -2.77088596     0.01130020
O     -3.70215678    -2.45436625     0.02391248
H      1.26895875     1.73049770    -0.00089528
H     -0.24037029     2.00769125    -0.86972187
H     -0.22339697     1.99824245     0.89963548
H      0.43586245    -0.42314022    -0.88496428
H      0.45274426    -0.43254276     0.87595333
H     -2.33616072     1.11590292     1.30065567
H     -3.24875633    -0.40326744     1.32630661
H     -1.69860794    -0.28534084     2.18340350
H     -1.74018104    -0.26213107    -2.14927070
H     -3.27361068    -0.38938018    -1.26389686
H     -2.36052439     1.12951528    -1.23949193
H     -0.55445046    -2.35258194    -0.00527598
H     -2.19865541    -3.83091241     0.00220583
