      13
Molecule_121_b3lyp.xyz
C     -0.02645508     1.55479743    -0.00198634
C      0.00071004     0.02539199     0.00080343
C      0.73660637    -0.54427331     1.23133930
C      0.77362889    -2.00129961     1.25348874
C      0.78969969    -3.20334966     1.24544746
H      0.98737363     1.97049419    -0.01213719
H     -0.55219364     1.93870486    -0.88126398
H     -0.53475569     1.94509661     0.88686745
H     -1.02036537    -0.37140993    -0.01468827
H      0.48998355    -0.34620060    -0.90629098
H      1.76216256    -0.15200198     1.25500412
H      0.25253664    -0.17708829     2.14622723
H      0.81156116    -4.26453943     1.25040318
