      14
Molecule_10008_b3lyp.xyz
C     -0.04102533     1.48450442    -0.03271763
C      0.00004039     0.03021838    -0.00227206
C      0.04686337    -1.17256274     0.04428880
C      0.07060720    -2.62682887     0.04548494
C     -1.37133757    -3.18182846     0.05544318
O     -1.71578412    -4.10915663     0.73114858
C      0.78583125    -3.14829866    -1.22085647
O      1.56332847    -4.05966444    -1.21024043
H      0.96895335     1.90755398    -0.05271940
H     -0.57206523     1.84631756    -0.91956450
H     -0.55358351     1.88343635     0.84908152
H      0.58831240    -3.05225372     0.90943530
H     -2.06780664    -2.64242726    -0.62025132
H      0.51799965    -2.60101808    -2.14893963
