      18
Molecule_9170_b3lyp.xyz
C     -0.34576337     1.43370538     0.43639385
C     -0.29168582     0.07219236    -0.25176337
C      0.72990056     0.02853955    -1.38215047
O      1.42429340     0.97120561    -1.70053240
N      0.80277827    -1.19422453    -2.02720913
C      1.66045571    -1.46385340    -3.08404673
N      1.67499712    -2.60598541    -3.62843114
C      2.59858205    -2.80908453    -4.72595729
H      0.62635831     1.69336930     0.86191787
H     -0.60955391     2.21919613    -0.27559909
H     -1.08765308     1.42729838     1.23951139
H     -0.04324570    -0.72071266     0.46621329
H     -1.27264428    -0.19779206    -0.66497697
H      0.20877026    -1.95671068    -1.73448190
H      2.27941261    -0.60512317    -3.35937825
H      3.27913614    -3.63425534    -4.48554731
H      2.04349217    -3.10870128    -5.62258682
H      3.20190667    -1.92093859    -4.97107260
