      18
Molecule_10534_b3lyp.xyz
O     -1.81560129     1.77032986     0.29978759
C     -1.74793330     0.50389411    -0.33766068
C     -1.46940402    -0.62141085     0.66226950
C     -1.31156460    -2.01111200     0.07283189
C     -0.75179813    -3.05179057     1.02651127
O      0.57655239    -2.73509231     1.40651600
C     -2.05858594    -2.47132262    -1.10611847
O     -0.68277313    -2.09074728    -1.22667420
H     -0.94374351     1.96438772     0.65858780
H     -2.72620150     0.36972582    -0.81062485
H     -0.99364595     0.48661460    -1.13556798
H     -0.54159540    -0.39521784     1.20441869
H     -2.26845955    -0.64273680     1.41357412
H     -1.33857738    -3.08055371     1.95092925
H     -0.80755905    -4.04403061     0.55546568
H      1.09154690    -2.70297525     0.59166826
H     -2.26044195    -3.53420819    -1.23505197
H     -2.76798297    -1.81018392    -1.59926068
