      14
Molecule_3581_b3lyp.xyz
O      0.11485708     1.45271281     0.15706926
C     -0.04555597     0.07147141    -0.01759854
C     -1.34704613    -0.64774348     0.05861008
C     -2.46943110    -0.07911223    -0.82800106
C     -2.13844018     1.13169481    -1.60791426
N     -1.65085146    -0.19166124    -2.08003501
C     -0.50389612    -0.69051856    -1.23268807
H      0.90642956     1.71635051    -0.32584264
H      0.72805797    -0.51012883     0.49230833
H     -1.53510635    -1.42473023     0.78872692
H     -3.46841829    -0.50195070    -0.79396927
H     -2.92195740     1.50557349    -2.26211006
H     -1.45149435     1.86777367    -1.22032684
H      0.08680169    -1.49033752    -1.66468360
