      17
Molecule_20965_b3lyp.xyz
C      0.19937278     1.38183055    -0.00748260
N     -0.24773210     0.00018412    -0.00215393
C     -0.08754489    -0.71789103     1.25061297
C     -0.03736261    -0.74456100    -1.15151310
C      0.01741542    -2.11708797    -1.35821395
C      0.19627536    -2.25680363    -2.75156906
N      0.26206434    -1.09275110    -3.38023001
N      0.12050440    -0.17902410    -2.38002413
H      1.28999769     1.49023964    -0.12865911
H     -0.29530549     1.94369132    -0.80729537
H     -0.09004612     1.85126201     0.93533848
H     -0.41758343    -0.07827016     2.07293878
H     -0.71711999    -1.61132967     1.24606261
H      0.95216773    -1.02922444     1.44246118
H     -0.05609126    -2.89442503    -0.61758094
H      0.28372409    -3.17322898    -3.31781268
H      0.13842663     0.79688813    -2.61361931
