      17
Molecule_4566_b3lyp.xyz
C     -0.03968132     1.53079542     0.00256265
C     -0.00903908     0.02461449     0.01992847
C     -0.27387645    -0.72604867    -1.12781305
N     -0.26496384    -2.05738413    -1.18754562
C      0.01762832    -2.74027561    -0.07043761
C      0.01746936    -4.24317933    -0.18004482
C      0.29773980    -2.08777347     1.13326364
C      0.28367641    -0.70016452     1.17580985
H      0.92909026     1.95535951     0.28906201
H     -0.28758633     1.90885760    -0.99302463
H     -0.78338782     1.92530817     0.70407001
H     -0.50849275    -0.21152872    -2.05905381
H      0.25679833    -4.71923013     0.77412731
H     -0.96175359    -4.60175398    -0.51332459
H      0.74725621    -4.57178395    -0.92701447
H      0.52363113    -2.66450888     2.02401600
H      0.49971871    -0.18034587     2.10540466
