      17
Molecule_17757_b3lyp.xyz
C     -0.06443153     1.49477280     0.04626476
C      0.11313938     0.01664170    -0.01482346
C      0.29145031    -0.97377187    -1.19943940
C     -0.59965629    -1.92980233    -0.45471970
C      0.88524632    -2.00056817    -0.22509457
C      0.69110240    -0.98280714     0.93356729
C      1.30160250    -0.86748373     2.28786674
N     -0.80593301    -0.95412328     0.69917439
H      0.83452139     2.01775952    -0.29948954
H     -0.90665559     1.81506811    -0.57759637
H     -0.27078105     1.80838268     1.07426957
H      0.48174740    -0.84813782    -2.25615686
H     -1.32629817    -2.66227031    -0.78377671
H      1.60254903    -2.78623608    -0.41706290
H      2.37196416    -0.64088017     2.22341709
H      0.81443305    -0.06835718     2.85513030
H      1.18357100    -1.79947451     2.85230870
