      17
Molecule_14957_b3lyp.xyz
O     -0.08088553    -0.03423855    -0.10044796
C     -0.00813027     1.17626620    -0.06466282
N      1.14641123     1.89863998    -0.04843138
C      2.44830539     1.24382606    -0.06557225
C      3.30518296     1.79374791     1.07549055
O      3.37526172     3.21152374     1.02965673
C      2.09287376     3.80006709     1.14730470
C      1.17731182     3.34975852     0.00434599
H     -0.89976990     1.83427295    -0.03736507
H      2.28112119     0.16977221     0.03255669
H      2.94708951     1.43878851    -1.02510991
H      2.88783627     1.46654183     2.04159482
H      4.33258998     1.42851484     0.99716878
H      1.63414357     3.52941271     2.11291398
H      2.23940148     4.88348242     1.12030424
H      1.56153450     3.75403993    -0.94323598
H      0.16049451     3.72759742     0.15037723
