      17
Molecule_15144_b3lyp.xyz
O      0.45763680     0.51578262    -1.11647232
C      0.22754003     1.31735115    -0.23432062
N      1.12334069     1.70618469     0.70913618
C      2.48797968     1.20128717     0.73560852
C      3.42320524     1.92929906    -0.24376028
C      4.82427547     1.37586873    -0.18019279
C      6.01425571     2.22758707    -0.28475197
O      5.58941085     1.72262824     0.98227154
H     -0.75597332     1.81182015    -0.10427978
H      0.84778255     2.41463702     1.36953855
H      2.87209102     1.29509595     1.75494112
H      2.44973942     0.13723471     0.48362636
H      3.02675610     1.81424373    -1.25855309
H      3.44437817     2.99954620    -0.00923829
H      4.92751948     0.32893011    -0.47272266
H      6.94722405     1.81406502    -0.66509483
H      5.89236201     3.30107989    -0.42526120
