      18
Molecule_11653_b3lyp.xyz
C     -0.14775505     1.57677252     0.02336099
C      0.02799116     0.06714250     0.02969699
C      1.18956379    -0.64309232    -0.74044482
C      2.17933783    -0.16560525     0.36479947
C      0.91525159    -0.65809438     1.11949138
C      0.90823860    -1.88745863     0.15036077
C      0.67191812    -0.67985584     2.58664567
O      1.43124262    -0.23747409     3.41367256
H      0.78286869     2.12426706     0.18757019
H     -0.55894631     1.90103560    -0.93915206
H     -0.85542696     1.88567889     0.80015993
H     -0.94243788    -0.42098013    -0.11825041
H      1.35667718    -0.63796714    -1.81838905
H      3.07864048    -0.77022489     0.50233427
H      2.41593529     0.89631586     0.41748493
H     -0.04869793    -2.39536628     0.00407150
H      1.72998719    -2.59587745     0.27932879
H     -0.29822895    -1.14272970     2.88664403
