      14
Molecule_20389_b3lyp.xyz
C     -0.00137243     1.43484280     0.07055662
C      1.48354055     1.92894957    -0.08697719
C      2.22545887     0.62450352     0.01329253
C      1.32620979    -0.39010767    -0.08410672
N      0.01225517    -0.02176546    -0.26656395
O      1.87921063    -1.58869518    -0.06761203
N      3.29863655    -1.37948825     0.05156494
C      3.45155204    -0.06849774     0.08137268
H     -0.33382420     1.57924296     1.10614590
H     -0.69120526     1.96579864    -0.58879538
H      1.62787707     2.41407524    -1.06022918
H      1.73078555     2.66687840     0.68137418
H     -0.69630409    -0.58648264     0.18276374
H      4.46145811     0.31011649     0.16679849
