      16
Molecule_4506_b3lyp.xyz
C      0.00900596     1.45349066     0.00459523
C      0.02739347    -0.03766120    -0.03140717
N      0.02750566    -0.78451357    -1.12192016
C      0.04804865    -2.07718412    -0.67863198
O      0.05375483    -3.12071424    -1.54474227
C      0.06104053    -2.15601369     0.68921164
C      0.08405934    -3.30818257     1.63081965
N      0.04739120    -0.81826884     1.08282002
H      0.89567034     1.86330326     0.50283687
H     -0.01100966     1.82728921    -1.01985361
H     -0.87238047     1.84080002     0.52941212
H      0.04064671    -2.73237449    -2.42734631
H      0.97573757    -3.31212962     2.27151965
H     -0.79328418    -3.33165946     2.29058260
H      0.08813768    -4.23692901     1.05570316
H      0.05156433    -0.49171174     2.03449348
