      16
Molecule_9369_b3lyp.xyz
O     -0.02073699     1.39422430    -0.07582927
C     -0.05710917    -0.01770555    -0.04929563
C     -1.47298780    -0.55672576     0.03292165
O     -2.14303530    -0.12724158    -1.17674304
C     -3.41156223    -0.52333071    -1.32791082
O     -4.01623910    -1.21466240    -0.54330495
C     -4.03186043    -0.00987583    -2.61494686
O     -5.34857300    -0.46145976    -2.74462762
H     -0.53229609     1.67394571    -0.84264651
H      0.44885995    -0.45562893    -0.92383505
H      0.49133354    -0.33263431     0.84436544
H     -1.49355780    -1.64911948     0.09094985
H     -2.00562686    -0.14632048     0.89534542
H     -3.98201248     1.08982196    -2.60495775
H     -3.40753378    -0.34542762    -3.45655871
H     -5.52634905    -0.98373239    -1.94827145
