      15
Molecule_19808_b3lyp.xyz
O     -0.00342650     0.00838321     0.08225606
C     -0.01492173     1.20263820     0.08683755
C     -1.14018664     2.26386627     0.09775534
C     -0.04953286     3.37028798     0.01179940
C      0.55288013     3.88923028     1.34180799
N      0.52643919     2.76015148     2.30106973
C      1.62441348     2.85760456     1.30855083
C      1.08825438     2.28687316    -0.02689391
H     -1.76729232     2.19681504    -0.79734823
H     -1.77238076     2.25125860     0.98709263
H     -0.13485735     4.10922840    -0.78218255
H      0.57442543     4.91296357     1.69504601
H      0.88880227     3.10326616     3.18928768
H      2.65780627     2.89316024     1.62922131
H      1.80835626     2.20831015    -0.84130440
