      18
Molecule_11972_b3lyp.xyz
C     -0.16433163     1.51969148     0.03406960
C     -0.01478461     0.00522109    -0.00481943
O     -1.23927488    -0.64027366    -0.27706013
C      1.22958123    -0.50512106    -0.78538088
O      1.90894624    -0.82790813     0.45003360
C      0.71025487    -0.60810308     1.19410770
C      0.71101890    -0.25065556     2.63989667
C      0.17646085    -1.59941697     2.17083951
H      0.78370500     1.99774710     0.29476426
H     -0.47661552     1.90441487    -0.94532361
H     -0.91531467     1.81235551     0.77462865
H     -1.72470412    -0.11275350    -0.91963341
H      1.01327254    -1.39859855    -1.38290973
H      1.79013965     0.22446136    -1.38015233
H      1.67327861    -0.24082450     3.14083850
H      0.00687554     0.49529044     2.99509769
H     -0.89469840    -1.76792960     2.18197357
H      0.78715550    -2.47374726     2.36821810
