      17
Molecule_15896_b3lyp.xyz
C     -0.25298416     1.38568449    -0.15517912
O      0.30212235     0.10589607     0.10878250
C      0.78037001    -0.52529583    -1.03919041
C      1.26472278    -1.99355568    -0.80530512
C      1.05920020    -2.56192114     0.58993855
N      0.26429349    -2.39193863    -1.81074386
C     -0.27992899    -1.14834142    -2.00265101
O     -1.20893587    -0.74409300    -2.65251384
H      0.50367884     2.06625103    -0.57494662
H     -1.09495088     1.32109951    -0.85376219
H     -0.59811579     1.78341355     0.80145282
H      1.51149210     0.10169182    -1.57235212
H      2.29143001    -2.16725117    -1.14743478
H      0.04983237    -2.35369497     0.95030016
H      1.22099371    -3.64491351     0.59081706
H      1.77095886    -2.11211756     1.28844956
H      0.00192770    -3.29746960    -2.17294298
