      14
Molecule_1606_b3lyp.xyz
C      0.00906327     1.44072318     0.00831786
N      0.10345159    -0.00922425    -0.01734884
C     -0.02104868    -0.69717044     1.25456522
C     -0.04429385    -0.63854875    -1.22123865
N     -0.22315927     0.00027619    -2.32133159
C      0.04789638    -2.09229378    -1.19872523
N      0.10635626    -3.24552722    -1.26861167
H      0.57501568     1.81658517     0.86512980
H      0.41956900     1.84494651    -0.91660655
H     -1.03222596     1.78028417     0.09689661
H     -1.01204376    -0.54256511     1.70439607
H      0.13514049    -1.76873483     1.12626434
H      0.73328368    -0.32001931     1.95302281
H     -0.23815449    -0.63570538    -3.11394044
