      14
Molecule_9944_b3lyp.xyz
O     -0.11062300     1.37813078    -0.00398911
C     -0.00762061    -0.01132559    -0.01963328
C     -0.45395303    -0.72161536     1.23528621
O     -0.86999970     0.11494955     2.27936886
C     -1.35988602    -0.74652238     0.00076341
O     -2.48480001     0.07005151    -0.00375912
C     -1.48344149    -1.99395780    -0.69897532
C     -1.55114050    -3.04743928    -1.27568452
H     -0.32850678     1.61592433     0.91168715
H      0.80288572    -0.38516431    -0.63568655
H      0.01599271    -1.65712173     1.52592634
H     -0.15963616     0.14504288     2.92983029
H     -2.18156253     0.93722478    -0.31292910
H     -1.62791920    -3.97362054    -1.78926558
