      11
Molecule_69_b3lyp.xyz
C     -0.05483118     1.46032843    -0.17068647
C      0.07105714    -0.03524485     0.11225841
O      0.58204486    -0.33316656     1.40176256
C     -1.27639279    -0.74383027     0.03051185
O     -2.11855775    -0.49643175    -0.79163412
H      0.93158072     1.93091398    -0.23353204
H     -0.57713995     1.61290939    -1.11835562
H     -0.62444315     1.94776119     0.62573670
H      0.69687521    -0.50071620    -0.67159471
H      1.45603316     0.06066659     1.47858584
H     -1.40723217    -1.53388627     0.80211181
