      16
Molecule_18877_b3lyp.xyz
O      0.17553467     1.39088083     0.18186776
C     -0.01503089     0.01089741     0.03250345
C     -1.42610888    -0.59459875    -0.00790456
C     -2.06312832    -0.42654135    -1.37302985
C     -1.52651398     0.64027068    -2.31021450
O     -0.10399499     0.42214768    -2.36178678
C      0.22071042    -0.58055070    -1.39205484
C     -1.01238211    -1.47836670    -1.19263569
H      0.24216978     1.74223624    -0.71673582
H      0.58569903    -0.51215336     0.78475745
H     -2.02600644    -0.86518850     0.85310279
H     -3.10144902    -0.72435149    -1.46112738
H     -1.93594625     0.53091273    -3.32198363
H     -1.73276277     1.65880043    -1.95932545
H      1.19429244    -0.99847604    -1.64150812
H     -1.11744540    -2.53953234    -1.36579340
