      16
Molecule_11815_b3lyp.xyz
C      0.25603726     1.62362082    -0.06719673
C      0.05682521     0.11393308    -0.00111761
C      0.51850376    -0.77430072    -1.20533944
C      1.27723360    -1.68146437    -0.22344136
C      1.30874119    -3.14969996    -0.10949846
O      2.46605826    -2.40061563    -0.47110246
C      1.04187647    -0.67518023     0.89637890
O      1.49054537    -0.50855381     1.99240769
H      1.27907293     1.87257908    -0.36734296
H     -0.42949212     2.08102550    -0.78708682
H      0.07656499     2.07503770     0.91296059
H     -0.97209572    -0.12343216     0.29491177
H     -0.26836331    -1.24705962    -1.79491420
H      1.20143684    -0.24350632    -1.87440667
H      1.33831440    -3.60987457     0.87674660
H      0.86416609    -3.74538060    -0.90575229
