      16
Molecule_9316_b3lyp.xyz
C     -0.01417392     1.47317040     0.01005540
C     -0.02723277    -0.04509407     0.00232859
O     -1.37615855    -0.47932776     0.01242870
C     -1.50786336    -1.86302971     0.00648021
C     -2.97969077    -2.25359303     0.01831718
O     -3.88952069    -1.46129556     0.03101184
C     -3.19850923    -3.69380183     0.01276157
C     -3.36862077    -4.88531504     0.00781042
H      1.01518230     1.84362768     0.00265778
H     -0.53282370     1.86461179    -0.86923974
H     -0.51678832     1.85543143     0.90260234
H      0.48850266    -0.43540009    -0.89118358
H      0.50472035    -0.44456057     0.88218087
H     -1.04280719    -2.32862789    -0.88286787
H     -1.02619341    -2.33778821     0.88203464
H     -3.53558146    -5.93525453     0.00312972
