      18
Molecule_16973_b3lyp.xyz
C     -0.03685557     1.60747839    -0.24428400
C      1.52373877     1.47963799     0.06022528
C      1.12601381     0.25063127     0.92970667
C      1.10894740    -1.33043726     1.09475081
C     -0.47371960    -1.02149702     1.12711151
C     -0.55323740    -0.18529984     2.40234699
C      0.48446184     0.64251772     2.27784633
C     -0.09400766     0.07044596     0.04120649
H     -0.52814352     2.21765778     0.51574181
H     -0.33445887     1.94456420    -1.24004097
H      2.08192865     1.21468999    -0.84149181
H      2.01367993     2.32321974     0.55604194
H      1.43139216    -1.88342112     0.20735417
H      1.53414277    -1.76098919     2.00564980
H     -1.20953257    -1.80949943     0.95886712
H     -1.27488593    -0.29514655     3.19931920
H      0.85458384     1.41123383     2.94313026
H      0.18045155    -0.44304200    -0.88739127
