      23
Molecule_13454_b3lyp.xyz
C      4.13969955    -5.59638554    -0.13850843
C      2.64253215    -5.34689351    -0.33738534
C      2.03585865    -4.44157966     0.74464943
C      0.57409312    -4.13803768     0.47801574
C     -0.55800553    -4.95424811     1.02650414
C     -0.36409851    -6.16523594     1.91524873
N     -0.34132826    -3.57525327     1.47510342
C      0.11467198    -3.29758999     2.82836383
H      4.54508039    -6.24173054    -0.92402098
H      4.70291321    -4.65659722    -0.15564781
H      4.33695969    -6.08058696     0.82455372
H      2.47377047    -4.89304300    -1.32270620
H      2.10561057    -6.30377804    -0.34963321
H      2.17910525    -4.90700573     1.72448014
H      2.59387998    -3.49498655     0.77498575
H      0.42288180    -3.69999487    -0.51076131
H     -1.44411295    -5.04410640     0.39654967
H      0.56916957    -6.14930142     2.48070535
H     -1.18688761    -6.25329288     2.63390162
H     -0.36489361    -7.07533125     1.30566428
H      0.82243524    -4.01934319     3.26011767
H      0.59355424    -2.31285779     2.84184955
H     -0.75763260    -3.25031173     3.48876507
