      20
Molecule_16159_b3lyp.xyz
C      0.10592018     1.49907272     0.32327406
C      0.00378454     0.04826700    -0.16581436
C     -1.40753727    -0.50119074    -0.13443129
C     -1.99822719    -1.02283442     1.16513580
C     -1.74486379    -1.97894619     0.02576673
C     -2.90368411    -2.30911262    -0.91379149
C     -3.26831683    -0.96166012    -1.50312867
C     -2.44065747     0.00286425    -1.09569828
H      1.14184802     1.85153041     0.29859007
H     -0.48764083     2.17564046    -0.30060176
H     -0.25929889     1.59198684     1.35126574
H      0.40116791    -0.02383325    -1.18682733
H      0.64459841    -0.58792915     0.45727707
H     -1.33218535    -1.09890317     2.02000587
H     -3.02062590    -0.75417839     1.41209444
H     -0.95184453    -2.70774852     0.15208225
H     -2.60089241    -3.01876382    -1.69605566
H     -3.74934617    -2.77421265    -0.38994780
H     -4.12079616    -0.82210248    -2.15862752
H     -2.50239498     1.04488680    -1.39050516
