      16
Molecule_13342_b3lyp.xyz
O      0.39313628    -0.08945166    -0.10356580
C      0.22958536     1.08366266     0.05607542
O      1.11728685     2.00724553    -0.34515091
C      0.82093917     3.40738084    -0.09920373
C      1.96995210     4.07036159     0.69367219
C      2.77722930     4.90074339    -0.33596297
C      1.86798485     4.94297825    -1.53773816
C      0.80586606     4.15061089    -1.40875071
H     -0.66112027     1.52585861     0.54650656
H     -0.13513267     3.45237937     0.43693172
H      1.54712399     4.72785325     1.45831239
H      2.56851849     3.31304017     1.20334536
H      3.01574184     5.90155648     0.04058898
H      3.73639381     4.43356574    -0.59332344
H      2.08896748     5.54701123    -2.41113261
H      0.03202197     3.99141945    -2.15024556
