      17
Molecule_3473_b3lyp.xyz
C     -0.07217323     1.55308658    -0.04621561
C      0.01046697     0.06417422     0.00882582
C      0.03404351    -1.00971891    -1.05503550
C      1.29897985    -1.63989679    -0.48019030
C      0.90805929    -0.94772650     0.85383062
C     -0.39733878    -1.66852548     1.28731947
C     -1.03394238    -1.02780924     0.05773971
H      0.88133934     2.00199462    -0.34955600
H     -0.83096074     1.87114906    -0.77006340
H     -0.34431711     1.98114935     0.92611249
H     -0.25688238    -0.91298260    -2.09408775
H      1.39639270    -2.73243155    -0.47118427
H      2.19765362    -1.19713900    -0.91954464
H      1.66690009    -0.67840158     1.58646965
H     -0.36663284    -2.76218152     1.36588865
H     -0.80640385    -1.24781097     2.21054715
H     -2.08552662    -0.94396625    -0.18876656
