      20
Molecule_8083_b3lyp.xyz
C     -0.09657191     1.51774528     0.00319031
C      0.05918529     0.01449437     0.00100220
C      1.13338098    -0.67719491    -0.89458592
C      1.12677593    -1.80856052     0.17649268
C      0.71541973    -0.71989581     1.20687800
C     -0.08188849    -2.72877421    -0.05680548
C     -1.23732884    -1.89980347    -0.65605325
O     -1.24013633    -0.54266215    -0.22130654
H      0.85654772     2.00447636     0.22947864
H     -0.44790278     1.86960541    -0.97191779
H     -0.83084163     1.82159355     0.75603489
H      0.87899351    -0.91548618    -1.93064879
H      2.06742809    -0.10995011    -0.87723630
H      2.04752718    -2.36894658     0.35208486
H      1.57773429    -0.17307601     1.59896395
H      0.04909372    -1.00737396     2.02491794
H      0.16516690    -3.54209366    -0.74887534
H     -0.37537995    -3.19030925     0.89322456
H     -1.17122611    -1.92843392    -1.75337367
H     -2.21357852    -2.31193902    -0.38417941
