      17
Molecule_6328_b3lyp.xyz
C     -0.47097110     1.76336476     0.34818079
N     -0.67615549     0.33276305     0.35162834
C      0.15551925    -0.46587588     0.84135262
C      1.47806512    -0.26289964     1.52364339
O     -0.23886140    -1.82069761     0.83552354
C      0.38576083    -2.66288991    -0.03140480
C     -0.18979746    -4.05147831     0.08701296
O      1.26309280    -2.32274057    -0.78033480
H      0.44304418     2.11765483     0.84219473
H     -0.45601338     2.11067370    -0.69070180
H     -1.33145653     2.24208869     0.82822330
H      1.72703281     0.79146320     1.64071543
H      1.45580695    -0.73357462     2.51160684
H      2.26022769    -0.75030742     0.93572767
H     -0.11911448    -4.40264680     1.12010039
H     -1.25077755    -4.03358334    -0.17809438
H      0.34860929    -4.72542871    -0.57797307
