      16
Molecule_14310_b3lyp.xyz
C      0.27195677     1.50858706     0.01242036
C      0.12558711     0.00767505     0.05710291
O      0.67095153    -0.58563099    -1.11129585
C      1.10382103    -1.87032278    -0.73523515
C      2.45797499    -1.94148697    -0.03616225
O      3.33378930    -0.87149456    -0.02681607
C      1.18006020    -1.86800344     0.77173871
O      0.86924687    -0.54135775     1.15078159
H      1.32153127     1.77663217    -0.13220516
H     -0.31130641     1.91114814    -0.81927458
H     -0.09206955     1.94809883     0.94418273
H     -0.92940514    -0.29795771     0.16604489
H      0.71514194    -2.69037699    -1.32986875
H      2.96637928    -2.90122867    -0.08026887
H      2.91299953    -0.18455485     0.50824750
H      0.81867749    -2.64414131     1.43788545
