      20
Molecule_15709_b3lyp.xyz
C     -0.49799312     1.44230486    -0.06472369
C      0.03998214     0.01274754     0.00528691
C      1.12926968    -0.29910790    -1.05074722
O      2.07845736    -1.17124639    -0.44325113
C      1.57094372    -1.59979113     0.81694476
C      0.71507836    -0.43486923     1.32610538
C      1.57966744     0.63374908     1.99269193
O      2.13813044     0.05368049     3.16531391
H      0.29930107     2.18324226     0.05328045
H     -0.97419477     1.62707671    -1.03363483
H     -1.24885551     1.62642738     0.71055872
H     -0.79987643    -0.67220500    -0.16277808
H      0.69787306    -0.76909634    -1.94561910
H      1.65433916     0.60995619    -1.37407515
H      0.96132499    -2.51131999     0.70566452
H      2.41780175    -1.82366402     1.46920219
H     -0.02427128    -0.77354306     2.05913887
H      2.36901587     0.96231827     1.29900420
H      0.96894021     1.51280648     2.24616201
H      2.74946334     0.68686008     3.55203499
