      15
Molecule_1547_b3lyp.xyz
C     -0.20353413     1.39939123    -0.09131850
N      0.00215252    -0.04728549    -0.06685998
C      0.90373538    -0.54288851    -1.10042812
C      0.69781053    -2.07080091    -1.20913846
O     -0.66949732    -2.37244923    -1.34275087
C      1.43793709    -2.60682328    -2.36161498
N      2.05519625    -3.00636923    -3.25213736
H      0.72649859     1.98306423    -0.00063710
H     -0.68683268     1.68055289    -1.03224620
H     -0.86999814     1.68377528     0.72734846
H      0.34569894    -0.32502188     0.84776652
H      0.61197333    -0.08732825    -2.05237516
H      1.96687228    -0.31216528    -0.93014591
H      1.12071723    -2.54756717    -0.30648146
H     -1.10610268    -1.67300091    -0.82643883
