      15
Molecule_524_b3lyp.xyz
C     -0.04303761     1.48931994     0.06153317
C      0.11775364    -0.01793962    -0.00521792
O      0.64493573    -0.45886039     1.24937479
C      0.85172673    -1.78439058     1.36773804
N      1.31354990    -2.27256349     2.43074774
C      1.50492994    -3.70625185     2.47519678
H      0.92089365     1.97043460     0.24720387
H     -0.44541385     1.86611582    -0.88335253
H     -0.72691267     1.76720454     0.86788463
H     -0.84854431    -0.50563961    -0.19420369
H      0.80241307    -0.30194022    -0.81631338
H      0.58456040    -2.37118856     0.47311166
H      0.92203639    -4.13039229     3.30098379
H      1.21723036    -4.22764748     1.54677636
H      2.55757898    -3.93121550     2.68231853
