      10
Molecule_1200_b3lyp.xyz
C      0.00247350     1.50438981    -0.01954547
C     -0.02746949    -0.00243044     0.06000284
O     -0.06496102    -0.63168920     1.09196033
C     -0.00813831    -0.70243772    -1.22352808
C      0.00726071    -1.30137332    -2.27466653
C      0.02452849    -1.97119627    -3.46383419
N      0.03945986    -2.53681599    -4.47815860
H      0.90453344     1.83470176    -0.54628217
H     -0.85563522     1.86757480    -0.59567114
H     -0.01777514     1.92141981     0.98801932
