      19
Molecule_14129_b3lyp.xyz
C      0.06147806     1.45849493    -0.21116727
C      0.02044498    -0.02842157     0.14553021
O      0.71160096    -0.29711400     1.36444413
C     -1.39105148    -0.55735342     0.19177259
C     -2.42113664    -0.32417135     1.31544047
C     -2.99169229    -1.75676915     1.04296413
C     -1.94691505    -1.92994640    -0.06715653
N     -2.05666717    -0.87048889    -1.06824236
H      1.09512134     1.81384292    -0.24224674
H     -0.40214491     1.63253462    -1.18636180
H     -0.48431555     2.05406035     0.53229672
H      0.55705111    -0.59568182    -0.62285563
H      0.42321983     0.35288328     2.01375740
H     -1.96636781    -0.25437232     2.30658508
H     -3.09867917     0.52540302     1.17712477
H     -2.83930801    -2.42894534     1.89029281
H     -4.03739030    -1.82640146     0.72423019
H     -1.44446708    -2.84751072    -0.35228495
H     -2.99757048    -0.48439165    -1.13175089
