      17
Molecule_10053_b3lyp.xyz
C      0.01824732     1.56394470     0.04388062
C     -0.01555659     0.03819509    -0.07423857
C      0.74561402    -0.50520140    -1.30799607
C      0.89203273    -2.04010339    -1.21137458
C      1.65424077    -2.61760669    -2.31726640
N      2.25718334    -3.05899084    -3.19852035
C     -0.01730545    -0.11375126    -2.56461865
O      0.21544718     0.85940257    -3.22997789
H      1.04528965     1.92522544     0.15789299
H     -0.40387800     2.04762339    -0.84108691
H     -0.55296473     1.89292604     0.91662904
H      0.42513944    -0.41279420     0.82321493
H     -1.05537263    -0.31508363    -0.11112754
H      1.73404634    -0.03846686    -1.36126604
H      1.38631677    -2.30378149    -0.27041699
H     -0.09841490    -2.51170812    -1.18729442
H     -0.87237551    -0.78932643    -2.80937598
