      12
Molecule_21927_b3lyp.xyz
O     -0.00628800     1.43127383     0.00737794
C      0.01079051     0.02091536     0.00232347
C     -1.40964681    -0.47387848     0.01224597
C     -2.52134124     0.36610106     0.02393276
N     -3.74315590    -0.14690664     0.03206952
N     -3.87587795    -1.47179503     0.02885734
N     -2.82877442    -2.26659988     0.01788321
N     -1.58911799    -1.78977022     0.00947391
H      0.89986043     1.75131852     0.00113260
H      0.51081817    -0.39218419    -0.88728527
H      0.52533031    -0.39836887     0.88068484
H     -2.42925017     1.44569315     0.02670955
