      19
Molecule_19162_b3lyp.xyz
O      0.12619889     1.24490180     0.78527022
C     -0.12028909    -0.13139296     0.55145993
C     -1.55069153    -0.44507698     0.12137065
C     -2.66705884     0.39769840     0.69060184
C     -2.27952314     0.51408845    -0.77142856
N     -1.65953995    -1.86524333    -0.13791738
C     -2.07407584    -2.73620594     0.96179267
C     -2.96080919    -2.51185559    -0.21230906
H      0.23364122     1.67565258    -0.06759796
H      0.56827330    -0.54931694    -0.19630205
H      0.08406606    -0.64014012     1.50081645
H     -3.62125975    -0.05761296     0.93126962
H     -2.37286798     1.20873830     1.34647251
H     -1.78088792     1.42168572    -1.09557047
H     -2.95297744     0.09038831    -1.50890488
H     -1.51793565    -3.66303287     1.06901058
H     -2.37166473    -2.26410975     1.89621878
H     -3.85923185    -1.92104161    -0.04975256
H     -3.05589368    -3.26855438    -0.98627838
