      16
Molecule_14918_b3lyp.xyz
C     -0.00404431    -1.17471412    -0.04187630
C      0.02233058     0.02177931     0.03677238
C      0.02778228     1.48156695     0.08737073
O     -0.65381047     1.89873040     1.24791372
C     -0.71652073     3.31992547     1.32221150
C      0.69042557     3.91962744     1.28101970
C      1.42263964     3.35562592     0.06175708
O      1.36249822     1.93238032     0.05985161
H     -0.02068524    -2.23518979    -0.10015315
H     -0.50102760     1.88985736    -0.79853083
H     -1.31995696     3.70992952     0.48450226
H     -1.23778461     3.55402886     2.25333236
H      0.64227524     5.01304725     1.23027367
H      1.23123111     3.64049808     2.19093181
H      0.97256399     3.74818679    -0.86631789
H      2.48360115     3.61613667     0.06058336
