      12
Molecule_6248_b3lyp.xyz
N     -0.20849694     1.35992616    -0.00058260
C      0.13819584     0.02105849     0.07658692
O      1.26227016    -0.37682489     0.23482448
N     -1.00526329    -0.80761181     0.01610726
C     -1.01629878    -2.19702967    -0.08947003
O     -0.05394816    -2.89584760    -0.27937510
C     -2.36928162    -2.73044316     0.03872527
C     -3.47203173    -3.19955656     0.13706651
H      0.59252364     1.96687091    -0.09039052
H     -1.00077238     1.62475841    -0.56605031
H     -1.90470932    -0.37354953     0.16024070
H     -4.43900534    -3.63259054     0.22513923
