      18
Molecule_18391_b3lyp.xyz
C     -0.06055724     1.46851668     0.03477543
C      1.31554367     0.87886978     0.06928722
O      1.93678914     0.94311125     1.31440449
C      2.77669268    -0.15238274     1.64289969
C      2.15643136    -1.54319309     1.37979821
C      0.68772744    -1.62451671     1.72263181
C     -0.23510479    -0.94005596     1.04517432
C      0.11835264    -0.03677306    -0.08472215
H     -0.42804010     1.85195505     0.97994919
H     -0.37095788     2.02362446    -0.84320696
H      1.97693791     1.02345812    -0.78626716
H      3.73459529    -0.08106708     1.10350487
H      2.98677982    -0.02542582     2.70948167
H      2.29301289    -1.79800675     0.32260366
H      2.73530548    -2.27793407     1.94880061
H      0.38826085    -2.26335892     2.54934169
H     -1.28795592    -1.03638390     1.30318994
H     -0.05590756    -0.44098153    -1.08155524
