      16
Molecule_5572_b3lyp.xyz
C      0.22741712     1.61856915     0.20893470
C     -0.12329019     0.15205531    -0.08720514
C      0.56416136    -0.38022187    -1.30405474
C      0.04554600    -0.92493842    -2.43970351
N     -1.22405179    -1.27957216    -2.87434028
O      1.07268462    -1.25965523    -3.27269615
C      2.19231350    -0.88929896    -2.58571164
N      1.95861921    -0.37828596    -1.42933971
H      1.30914504     1.73298839     0.31617912
H     -0.09889060     2.27333395    -0.60551633
H     -0.25020788     1.95720879     1.13361648
H      0.14390869    -0.46235199     0.78264325
H     -1.20910274     0.04555735    -0.20707607
H     -1.94965656    -0.86848758    -2.30263048
H     -1.38172718    -1.05856533    -3.85074990
H      3.13523206    -1.05608221    -3.08056920
