      10
Molecule_8614_b3lyp.xyz
O     -0.07217452     1.42241992    -0.00240395
C      0.00656896     0.01105109     0.01579478
C      0.70985778    -0.50119461     1.20064193
C      1.30942381    -0.87736390     2.16886144
C     -1.39178144    -0.48540536     0.00828619
N     -2.47214365    -0.88903522     0.01056493
C      0.69474309    -0.48945556    -1.21000131
N      1.26002252    -0.83542440    -2.15509979
H      0.81651620     1.76806267     0.15348759
H      1.83415795    -1.22015827     3.02822965
