      12
Molecule_5165_b3lyp.xyz
N     -0.20532577     1.28455933     0.01101665
C     -0.03534265     0.04132776     0.00404816
O     -1.16037108    -0.75411198     0.00892573
C     -0.97637596    -2.07802471     0.00097854
N      0.11689359    -2.76624735    -0.01015523
C     -0.34117458    -4.08562497    -0.01345060
C     -1.68985686    -4.09407488    -0.00392858
O     -2.11694870    -2.78039733     0.00559396
H      0.69646787     1.75766044     0.00511443
H      0.88904300    -0.53734591    -0.00704744
H      0.34333946    -4.91831910    -0.02240707
H     -2.45970489    -4.84441724    -0.00212780
