      21
Molecule_7271_b3lyp.xyz
C      0.05465449     1.54076252    -0.02280722
C      0.00985423     0.00490440     0.03378454
C      0.78602643    -0.47781783     1.27092273
C     -1.44559085    -0.52880710    -0.00567358
C     -2.24115839    -0.00284321    -1.20964007
C     -1.46261661    -2.08087198    -0.00155046
C     -2.81163687    -2.64017257     0.05182316
N     -3.88323235    -3.07067898     0.10239919
H      1.08749956     1.89373363     0.05743645
H     -0.35578490     1.93679420    -0.95418340
H     -0.50936441     1.98044916     0.80876412
H      0.52334738    -0.37836829    -0.86127532
H      0.27185683    -0.18589024     2.19451845
H      0.92638573    -1.56185039     1.29306420
H      1.78301454    -0.02718530     1.29402602
H     -1.94887638    -0.19675102     0.91291483
H     -2.38373998     1.07817222    -1.15765339
H     -1.72446597    -0.23017954    -2.15012060
H     -3.23236793    -0.46256437    -1.25308234
H     -0.96608260    -2.45997023    -0.90396800
H     -0.90923042    -2.47734522     0.85385847
