      16
Molecule_16111_b3lyp.xyz
C     -0.03978925    -1.17428939     0.37470036
C      0.02074213     0.00274655     0.13751055
C      0.05154057     1.39964267    -0.18775860
C     -0.82237330     1.95275912    -1.30694003
C     -0.29751112     3.39259951    -1.51753522
C      1.19239176     3.35767909    -1.09751192
C      1.24843443     2.25926350    -0.05639820
O      0.19829194     2.32666859     0.91252933
H     -0.08452083    -2.21203041     0.59578141
H     -0.67678645     1.33229011    -2.19855720
H     -1.88547126     1.92054460    -1.05276801
H     -0.43321366     3.73657832    -2.54532328
H     -0.84245070     4.07775326    -0.86550595
H      1.84405715     3.08108350    -1.93544978
H      1.54343731     4.31975453    -0.71177752
H      2.19546496     1.87083168     0.30961687
