      11
Molecule_1160_b3lyp.xyz
C     -0.00188755     1.53748125     0.03955562
C      0.00464456     0.00034799     0.00646560
O      0.69315690    -0.43133439     1.16141495
C     -1.38729162    -0.51764305     0.00273144
N     -2.46731251    -0.92470929     0.03765191
C      0.68737404    -0.48249296    -1.22093642
N      1.25035863    -0.86175847    -2.15505320
H      1.03104029     1.88950656     0.04544157
H     -0.52259386     1.93825101    -0.83149940
H     -0.50479064     1.86345833     0.95154479
H      0.71825913    -1.39640142     1.17533930
