      14
Molecule_20491_b3lyp.xyz
C     -0.04572166     1.53979008     0.09735182
O      1.28032429     1.92541647    -0.31724606
C      2.11905782     0.79994578    -0.62460324
C      1.23567067    -0.38038954    -0.37912985
N      1.34727738    -1.69650999    -0.45879166
N      0.11803586    -2.11976821    -0.07676345
C     -0.74521684    -1.10860282     0.23486675
C     -0.02996669     0.04933163     0.04287927
H     -0.23407567     1.94014008     1.10348364
H     -0.77783118     1.99607625    -0.58372590
H      2.46183914     0.87283098    -1.66582204
H      3.00595251     0.81692886     0.02353583
H     -0.06629577    -3.10840738    -0.05006696
H     -1.75489441    -1.31344259     0.55334185
