      15
Molecule_13034_b3lyp.xyz
O     -0.06315024    -0.00787557    -0.50068666
C     -0.07239649     1.15940453    -0.21283097
C     -1.13049630     2.25102958     0.07222309
C      0.07945329     3.19368909     0.33569332
N      0.94703009     2.06081719    -0.00230206
C      2.37974269     1.87237499     0.05013604
C      2.94766924     2.15664299     1.36845469
C      3.40077853     2.41704136     2.45013206
H     -1.75388648     2.50952179    -0.78514867
H     -1.76185085     2.04328846     0.93760459
H      0.17507956     4.04555474    -0.34579494
H      0.18853762     3.53672282     1.36919274
H      2.55652648     0.82681537    -0.22797553
H      2.87833137     2.49577243    -0.70537970
H      3.80965938     2.63087199     3.40676237
