      15
Molecule_1464_b3lyp.xyz
C     -0.09356952     1.44877512     0.02505895
C      0.00412992    -0.00311883     0.00149622
C      0.09274589    -1.20471376     0.00335664
C      0.17734810    -2.65940755    -0.06093422
O     -1.10279557    -3.29267968     0.09407699
C      0.81231525    -3.14617998    -1.37716645
O      0.81187024    -4.55287524    -1.42562752
H      0.79130723     1.89380982     0.49284248
H     -0.17922919     1.86143301    -0.98591814
H     -0.96941862     1.77634384     0.59557464
H      0.77889124    -3.04756427     0.76940023
H     -1.73863053    -2.77624615    -0.41467579
H      0.25688097    -2.70103330    -2.22046225
H      1.85024942    -2.80550897    -1.44314134
H     -0.06626635    -4.81718083    -1.12006718
