      12
Molecule_5674_b3lyp.xyz
O     -0.08505626     1.27849218     0.00985545
C      1.20951566     1.79540783     0.00007327
C      2.15292058     0.81323658    -0.01451865
C      1.42366769    -0.42994520    -0.01372978
C      0.11846111    -0.03879772     0.00109053
O     -0.77603880    -1.02703055     0.00480703
C      0.02083772    -2.17071858    -0.00866804
C      1.34895102    -1.86928021    -0.02031950
H      1.25879479     2.87047666     0.00527248
H      3.21931547     0.97518986    -0.02421758
H     -0.52930955    -3.09568654    -0.00791448
H      2.15049636    -2.59102232    -0.03191658
