      13
Molecule_18416_b3lyp.xyz
O      0.02675106     0.01281086     0.04658423
C     -0.02118414     1.19831926     0.07950773
C     -1.12811736     2.26590728     0.13594874
C      0.02113918     3.26533680     0.04266525
C      1.01990631     3.06950421     1.11581305
C      0.69059355     2.57521745     2.42319348
C      0.43293789     2.17348529     3.52647813
N      1.07047765     2.16255811    -0.09456056
H     -1.75874720     2.23232634    -0.75569567
H     -1.75178907     2.29001717     1.03139477
H      0.05501472     4.12573154    -0.61449654
H      1.87041399     3.74587325     1.09328628
H      0.20747024     1.81117721     4.49941393
