      20
Molecule_14138_b3lyp.xyz
C     -0.08687178     1.53599634     0.00335458
C     -0.01003699     0.02609871     0.04282640
C      1.27531164    -0.69178937    -0.27752732
C      0.73812168    -0.70058642     1.14422552
C      1.44240796     0.02901247     2.30318208
C      1.52842242    -1.01378285     3.45531412
C      0.62008448    -2.13051958     2.99588744
C      0.20930858    -1.95523389     1.74051440
H      0.85222696     1.99476846     0.32803317
H     -0.29172436     1.89041264    -1.01307357
H     -0.88323943     1.91559456     0.65375115
H     -0.91742106    -0.47077131    -0.29471052
H      1.23588578    -1.61208290    -0.85165426
H      2.15567111    -0.08475752    -0.46990544
H      2.42662451     0.41145764     2.02076142
H      0.84614955     0.88928553     2.62547292
H      2.55383322    -1.38090870     3.60006772
H      1.22134990    -0.58990956     4.41860325
H      0.37400862    -2.98007925     3.62296753
H     -0.42467216    -2.63542869     1.18090711
