      22
Molecule_9418_b3lyp.xyz
C      0.01353000     1.54115535     0.12238617
C     -0.00164308     0.01608169    -0.00121703
C      0.71065596    -0.49513820    -1.25992767
O      2.06663758    -0.04499545    -1.31275750
C      0.62143266    -2.01854074    -1.39776506
C      1.26151655    -2.53983532    -2.67765665
O      1.14796091    -3.94762382    -2.69285704
C      1.72390443    -4.52800548    -3.83665992
H      1.03863685     1.91952936     0.09413720
H     -0.53375435     2.00773917    -0.70422446
H     -0.45116594     1.86835580     1.05725340
H      0.47832237    -0.43717250     0.87886579
H     -1.03463358    -0.35346695    -0.00615701
H      0.24464734    -0.02954976    -2.13938848
H      2.52593852    -0.42557903    -0.55497994
H      1.11020557    -2.49564461    -0.53687172
H     -0.42917250    -2.33022267    -1.37112609
H      0.75932810    -2.10475224    -3.56009328
H      2.31734318    -2.23213553    -2.72667118
H      1.23818422    -4.17976407    -4.76268134
H      2.80008319    -4.30347359    -3.91333047
H      1.59448151    -5.61043160    -3.75751163
