      16
Molecule_7294_b3lyp.xyz
C     -0.05668257     1.63709935     0.15427588
C     -0.04631847     0.10446325     0.00918183
C      0.77482411    -0.57845093     1.12465871
C      2.16738403    -0.14107401     1.14440107
N      3.26794796     0.21217206     1.14137297
C     -1.48456768    -0.42360447     0.08627812
N     -2.13835689    -0.48982916    -1.10646380
O     -2.00641381    -0.73213620     1.14085299
H      0.96182368     2.03325436     0.13010824
H     -0.62541851     2.10310378    -0.65528041
H     -0.51958898     1.92576061     1.10302063
H      0.39040680    -0.15855927    -0.96130927
H      0.30381948    -0.36903781     2.08972650
H      0.75108004    -1.66614667     1.00061298
H     -1.70891817    -0.22437054    -1.97494314
H     -3.10704539    -0.76532983    -1.10746301
