      13
Molecule_21251_b3lyp.xyz
C     -0.03573067     1.39941629    -0.01877845
O     -0.06473851    -0.02679591    -0.02552943
C      0.56820381    -0.60995398    -1.06591302
C      0.65995250    -1.97214630    -1.26431914
O      0.21454866    -3.04906043    -0.58769734
N      1.36789356    -2.08010055    -2.40770855
N      1.70261234    -0.86444786    -2.90111321
N      1.20798768     0.02322636    -2.07196218
H      0.99337165     1.77056761     0.02430924
H     -0.51584765     1.80571301    -0.91490564
H     -0.58380991     1.70495309     0.87340087
H     -0.26018546    -2.73000445     0.18901014
H      1.64814872    -2.91885759    -2.88999659
