      15
Molecule_11095_b3lyp.xyz
O      0.04465493    -0.09681090    -0.17050679
C      0.00414257     1.08950518     0.02415629
C      1.20450079     1.99944856     0.04869108
C      1.01904123     3.27393029    -0.83827809
C      0.67088763     4.09917454     0.44006579
C      1.23626737     2.92956523     1.30537939
C      1.27641121     5.41110543     0.58944467
N      1.77986804     6.44565678     0.70459494
H     -0.97059905     1.60531550     0.20578708
H      2.09915025     1.40510568    -0.13745260
H      1.96184186     3.58908865    -1.28685894
H      0.25093367     3.24051129    -1.61364499
H     -0.41112156     4.19474481     0.56507285
H      0.63396743     2.63323917     2.16661492
H      2.25801672     3.11953630     1.63607311
