      16
Molecule_5898_b3lyp.xyz
C     -0.00689507     1.48274837     0.01318566
C      0.00512925     0.02756381     0.00326604
C      0.02202747    -1.17651932     0.00737520
C      0.03543128    -2.64944661    -0.04954797
C     -1.39384606    -3.21084908     0.13009938
N      0.58695849    -3.18938413    -1.30942377
C      0.88674236    -3.15785993     1.05314372
N      1.54278921    -3.54946692     1.91917929
H      0.50369975     1.87179027     0.90052693
H      0.49989606     1.88986761    -0.86837370
H     -1.03087661     1.87117720     0.01962332
H     -2.02756113    -2.83411483    -0.67752232
H     -1.36360479    -4.30123180     0.08729146
H     -1.81720979    -2.88899755     1.08289762
H      0.01467031    -2.83785919    -2.07349590
H      1.51845275    -2.80876799    -1.45562148
