      12
Molecule_21707_b3lyp.xyz
N     -0.01778263     1.32416668     0.00830522
C      0.05256741    -0.01681294     0.00181377
N      1.19094392    -0.62350831    -0.01229063
C      1.21016949    -1.98355822    -0.01928749
N      2.27758750    -2.74102706    -0.03017406
C      1.73453874    -3.99438280    -0.03272937
N      0.43035141    -4.05851788    -0.02533061
O      0.06029478    -2.70203989    -0.01553464
H      0.83442316     1.86210285     0.00242282
H     -0.89991501     1.80229918     0.02020637
H     -0.91472323    -0.52544829     0.00931685
H      2.33037513    -4.89624547    -0.04139256
