      16
Molecule_12931_b3lyp.xyz
C      0.26180244     0.96254333     0.38413682
O     -0.45581072     0.06439932    -0.44692180
C      0.34468191    -0.56809553    -1.38493250
C      1.40101452    -1.59012642    -1.02096498
O      1.04874315    -2.27928164     0.17425100
C     -0.16251575    -2.79450563    -0.44519951
C      0.11728862    -2.00987315    -1.72884038
O     -0.10124733    -2.49433667    -3.00107514
H      1.04225808     0.43833657     0.94907588
H      0.72387508     1.77252277    -0.19935749
H     -0.46002724     1.39653049     1.07968822
H      0.63079923     0.03773245    -2.25007827
H      2.44558885    -1.55115913    -1.30805044
H     -0.08614411    -3.87611364    -0.59716444
H     -1.06188613    -2.53881389     0.12229871
H     -0.88593417    -2.06488849    -3.35965493
