      12
Molecule_64_b3lyp.xyz
C     -0.00242350     1.55035837     0.01056187
C     -0.01856600     0.01004352    -0.02261770
C     -1.45045318    -0.55766178     0.01293347
C      0.70125749    -0.48583168    -1.20172764
N      1.26190946    -0.87126766    -2.13619740
H      1.01959496     1.93673215     0.00349668
H     -0.52972844     1.96141639    -0.85498386
H     -0.50134251     1.90346839     0.91755862
H      0.52481877    -0.36222456     0.85525462
H     -2.02427903    -0.21428716    -0.85251869
H     -1.44438296    -1.65026927     0.00754107
H     -1.95805494    -0.21725882     0.91996760
