      12
Molecule_3682_b3lyp.xyz
C     -0.04773713     1.53893138     0.00114294
C     -0.01383367     0.04560080    -0.01102449
C     -0.11739957    -0.83331520    -1.04008067
O     -0.03623463    -2.10560806    -0.61713866
N      0.13150567    -2.10320289     0.77006338
C      0.14163339    -0.83631958     1.10218418
O      0.28574710    -0.42912799     2.37401290
H      0.87905372     1.95507012     0.41016057
H     -0.17954427     1.93594183    -1.00844713
H     -0.86841377     1.91366947     0.62200075
H     -0.24913549    -0.70095020    -2.10359477
H      0.37113437    -1.21692818     2.92750436
