      14
Molecule_4982_b3lyp.xyz
N      0.03066604     1.43030910     0.08295016
C     -0.00344151     0.02541538     0.01653977
C     -1.15476144    -0.74073247     0.06311857
N     -1.15023481    -2.08268677     0.03905659
C      0.04695427    -2.64766265    -0.05029940
N      1.23058273    -2.02721807    -0.08590094
C      1.21028060    -0.69777993    -0.04036042
N      2.40841270    -0.01500236    -0.09700226
H      0.60811297     1.83702035    -0.64598136
H     -0.89287045     1.84455677     0.04739413
H     -2.12875337    -0.25540130     0.12285220
H      0.07595734    -3.73366674    -0.09013434
H      3.21065178    -0.61088730     0.05358655
H      2.43098395     0.84589204     0.43315825
