      18
Molecule_18037_b3lyp.xyz
C     -0.02273955     1.55080059     0.08693400
C      1.51508680     1.59314368    -0.14029102
C      1.43625935     0.10275471    -0.61718703
C      2.42115507    -0.91605070    -0.14583738
C      2.08518523    -1.79837920     0.79327135
C      0.74115426    -1.74903425     1.47312709
O      0.11699173    -0.48142535     1.37316176
C      0.03525225     0.00904726     0.04696866
H     -0.41383844     1.97710727     1.01246134
H     -0.57992954     1.95605827    -0.76188356
H      1.89860733     2.32398081    -0.85533235
H      2.06755320     1.68633184     0.79671656
H      1.34210471     0.06930841    -1.70889066
H      3.40857150    -0.93369013    -0.60124307
H      2.77117288    -2.57757744     1.11415020
H      0.08061356    -2.54220898     1.07631917
H      0.85157575    -1.94146370     2.54639398
H     -0.74734945    -0.52625990    -0.51063648
