      18
Molecule_12246_b3lyp.xyz
C      0.23408031     1.56978986     0.03779577
C      0.08855749     0.04447822     0.03791879
C      0.46582841    -0.57017136    -1.29543130
O      1.90117542    -0.38740196    -1.59113692
C      2.11370949    -1.74009780    -1.65817565
O      3.14391378    -2.30670534    -1.83780342
C      0.64554641    -2.10653058    -1.42351674
C      0.33499140    -3.04767702    -0.26576949
H      1.26373709     1.85733454    -0.19212618
H     -0.41929288     2.03048404    -0.71107704
H     -0.02777212     1.98788537     1.01375019
H      0.71429540    -0.38806994     0.82624597
H     -0.94756637    -0.23904655     0.26320241
H     -0.11696202    -0.12469487    -2.10820374
H      0.20104229    -2.48897127    -2.34780168
H      0.78181749    -2.70877408     0.67232882
H     -0.74458485    -3.14447660    -0.11623410
H      0.73631796    -4.04131578    -0.48389462
