      19
Molecule_11950_b3lyp.xyz
C     -0.30745500     1.28617241     0.42896885
C      0.13630256    -0.10359712     0.08988751
C      0.64663358    -0.61544893    -1.26614226
C      1.55246295    -1.64063257    -0.49889474
C      0.98960276    -1.08827591     0.81767406
C      1.71355416    -1.01752809     2.13445388
O      0.94823790    -0.37930356     3.15349325
N     -0.47956969    -1.29908716     0.74438959
H      0.39390513     2.02851357     0.03205256
H     -1.29426107     1.50227487     0.00131212
H     -0.36155163     1.41984980     1.51321676
H     -0.11770931    -1.03764804    -1.92331922
H      1.22993119     0.12936717    -1.81344922
H      1.35766241    -2.70075197    -0.68009534
H      2.61843932    -1.43687836    -0.63130055
H      2.02066734    -2.02800860     2.44582286
H      2.63175989    -0.42892943     2.01912624
H      0.41420813    -1.05051233     3.58767490
H     -0.84754449    -0.94899479     1.63132858
