      12
Molecule_3802_b3lyp.xyz
C      0.02354170     1.39674958     0.00762264
O      0.02163707    -0.02192992     0.00285336
C     -1.19945319    -0.59032504     0.01024383
C     -2.45534098    -0.05944348     0.02183174
O     -3.36401757    -1.05963075     0.02529133
N     -2.70717653    -2.27697786     0.01585847
C     -1.42883949    -1.99562299     0.00700829
H      1.06839156     1.70867590     0.00055609
H     -0.48390283     1.79411964    -0.88145786
H     -0.46999551     1.78809540     0.90714439
H     -2.84999667     0.94198250     0.02844417
H     -0.69714428    -2.79002677    -0.00147486
