      22
Molecule_18715_b3lyp.xyz
C     -0.07193119     1.55638501     0.01662162
C      0.04864961     0.02733443     0.00633959
C      0.66940929    -0.49406061    -1.30156760
C      0.86610666    -2.01279717    -1.25469173
C      1.88676763    -2.42290102    -0.17969399
C      1.67606219    -1.71030924     1.15797004
C      2.27919097    -0.34238267     1.38509938
C      0.78537761    -0.48598895     1.23705795
H      0.91625659     2.02722926    -0.02982614
H     -0.65521034     1.91283486    -0.83966301
H     -0.56458138     1.91036052     0.92862920
H     -0.96938667    -0.38830571     0.05437920
H      0.01789251    -0.21840967    -2.13902431
H      1.63216372     0.00195246    -1.48976691
H     -0.10183863    -2.48531840    -1.03955444
H      1.18705213    -2.39100658    -2.23181548
H      1.83506697    -3.50586103    -0.02505230
H      2.90002001    -2.21991623    -0.55015314
H      1.65935532    -2.36326731     2.02531456
H      2.68041189    -0.10238285     2.36397040
H      2.83951636     0.09258751     0.56261240
H      0.21832522    -0.37205819     2.15804403
