      17
Molecule_10563_b3lyp.xyz
C     -0.44466802     0.74037500    -0.03455241
O      0.10821134     0.45693122     1.23770454
C      1.18708871    -0.45900274     1.20467819
C      0.73694607    -1.89001631     0.92477741
C      0.70651596    -2.88617598     2.05041839
N     -0.53797519    -2.35602636     1.52293322
C      0.96249835    -2.43812689    -0.44582224
O      1.65000955    -1.91702932    -1.28865840
H     -0.92521610    -0.14034592    -0.48314678
H     -1.20056910     1.51499832     0.11372320
H      0.32130861     1.10998685    -0.73062198
H      1.92568005    -0.17502890     0.44299210
H      1.65524190    -0.38890716     2.19047872
H      0.88102385    -3.94017583     1.84823217
H      1.08258997    -2.53793965     3.00917068
H     -0.89059361    -1.59499096     2.10135329
H      0.42779152    -3.39643051    -0.62826266
