      17
Molecule_14961_b3lyp.xyz
C     -0.14493870     1.46040260    -0.02978930
N     -0.09793582     0.00824437    -0.05592203
C      0.59543413    -0.58895765    -0.92387050
C      0.62515079    -2.09744770    -1.01859516
C      2.00312302    -2.59695228    -1.45820703
O      2.41203489    -1.88119219    -2.61945177
C      2.51921586    -0.52724564    -2.33694876
O      1.29057288     0.06743856    -1.91489336
H      0.64051899     1.94809707    -0.61698720
H     -1.11736105     1.79631404    -0.41040836
H     -0.08025707     1.79484087     1.01071830
H      0.31955298    -2.52018003    -0.06018510
H     -0.10790722    -2.40108645    -1.77608257
H      2.74459440    -2.45777161    -0.65481849
H      1.98301862    -3.65473965    -1.72848640
H      3.27382611    -0.35240692    -1.55058674
H      2.80184322    -0.01336159    -3.25692445
