      18
Molecule_16867_b3lyp.xyz
O      0.03141350    -0.10535524    -0.00315357
C     -0.00240536     1.10156878     0.05887068
C     -1.29491725     1.89807630     0.08555681
C     -1.40905732     2.72108109     1.38825306
C     -0.13437819     3.49745903     1.72089961
C      0.95075797     2.84599768     2.54657445
C      1.18902080     3.11353845     1.08409702
C      1.25939523     1.95660402     0.09677249
H     -1.28351591     2.58791191    -0.76886366
H     -2.13854227     1.21440590    -0.03130137
H     -2.24956613     3.41501042     1.29180877
H     -1.66427898     2.04638001     2.21331385
H     -0.28035127     4.55933304     1.89128849
H      1.48279125     3.44378552     3.27838746
H      0.79106411     1.81433220     2.84928255
H      1.86611995     3.93160203     0.85688513
H      2.11863775     1.30564400     0.28360547
H      1.37607947     2.36258923    -0.91889394
