      22
Molecule_14303_b3lyp.xyz
C     -0.13039332     1.55909034    -0.01081016
C      0.04032119     0.05683203     0.03173733
C      1.31714816    -0.67004981    -0.33241034
C      2.63794926     0.09960377    -0.35457839
C      3.11770842     0.14486212     1.12106642
C      4.03242476     1.32090380     1.45852028
C      1.81738045     0.07202376     1.96580646
C      0.80985550    -0.68708859     1.10208798
H      0.76181671     2.10121988     0.31127755
H     -0.36476419     1.89426110    -1.02760593
H     -0.95446662     1.87445411     0.63925934
H     -0.85582357    -0.46973067    -0.29142316
H      1.23122919    -1.55068319    -0.95999299
H      3.37273886    -0.39392029    -0.99788813
H      2.51498607     1.11526551    -0.75158701
H      3.66899945    -0.78706784     1.30494409
H      3.52172880     2.27673669     1.28926998
H      4.34770998     1.29556264     2.50735497
H      4.93709580     1.31536146     0.84074946
H      1.98815562    -0.44047044     2.91739196
H      1.46462229     1.07996091     2.21864829
H      0.35511693    -1.58010824     1.51740243
