      19
Molecule_18525_b3lyp.xyz
C      0.04200376     1.51110844    -0.04832717
C     -0.10305863     0.00598140    -0.19233248
O      0.94111174    -0.46924360    -1.02410952
C      0.91312313    -1.85751238    -1.22248921
C     -0.07160131    -2.47043599    -2.26483718
N      1.06361558    -3.08484293    -3.04227011
C      1.87842256    -1.94479269    -3.49196231
C      2.03624524    -2.38842356    -2.09344998
H      1.01126814     1.76181378     0.39183162
H     -0.02613622     1.99847531    -1.02506387
H     -0.74720405     1.91090846     0.59533324
H     -0.05131217    -0.48553737     0.79390595
H     -1.08437842    -0.24682246    -0.62616289
H      0.84995169    -2.38200337    -0.25818312
H     -0.72391069    -3.24899683    -1.86472620
H     -0.66391935    -1.75431811    -2.84413282
H      2.65871966    -2.23128883    -4.19012472
H      1.39507352    -0.99448507    -3.70496283
H      2.93410059    -2.87838390    -1.73237744
