      17
Molecule_13708_b3lyp.xyz
C      0.08846717     1.30363009     0.13105088
O     -0.24319801    -0.05031430    -0.15653600
C      0.55056159    -0.66667763    -1.05062855
N      0.32686347    -1.86017562    -1.38735876
C      1.16593165    -2.48048811    -2.35085936
C      1.54462339    -3.93642050    -2.09154730
C      0.49169222    -3.60310510    -3.11335289
O     -0.84937840    -3.86394223    -2.85894097
H      1.10491158     1.39072993     0.53344861
H     -0.00496558     1.93674556    -0.75947099
H     -0.62403348     1.63989795     0.88476047
H      1.37780323    -0.05366157    -1.43686691
H      1.89160899    -1.85180008    -2.86917783
H      2.52193102    -4.26915591    -2.42476652
H      1.20151375    -4.36102860    -1.15495505
H      0.73749100    -3.72469113    -4.16419253
H     -1.09872820    -3.27604006    -2.13025293
