      18
Molecule_11668_b3lyp.xyz
C     -0.18624297     1.59801670    -0.14626141
C      0.02571022     0.10545266     0.04509073
C      1.23624015    -0.67242885    -0.54986878
C      2.18799746    -0.05088693     0.49452691
C      0.88183521    -0.50101569     1.20099380
C      0.60256155    -0.68585635     2.66369843
O      1.58246803    -1.51144945     3.26440709
O      0.95041688    -1.76741357     0.40797185
H      0.72640160     2.18469972    -0.01615272
H     -0.57048407     1.80051266    -1.15181976
H     -0.92819502     1.97458356     0.56607686
H     -0.90253855    -0.45725170    -0.08881432
H      1.43338646    -0.95796977    -1.58354075
H      3.06394550    -0.65332469     0.73374024
H      2.41553784     1.01483541     0.44014885
H      0.63302905     0.28061491     3.17855421
H     -0.41157883    -1.10027538     2.78388968
H      1.67819015    -2.27906689     2.68764841
