      17
Molecule_6999_b3lyp.xyz
C     -0.36756704     1.47756235    -0.05069379
C      0.12225631     0.05039439    -0.00179064
O      1.39446466    -0.12432186    -0.73487406
C      1.99825318    -0.69573234     0.35511821
N      3.13307903    -1.20663264     0.51365623
C      0.79303214    -0.53855634     1.27329837
C      0.98912364     0.35554825     2.48804216
O      0.18943007    -1.77050212     1.62208926
H      0.38664861     2.17677936     0.31893862
H     -0.61357427     1.75423405    -1.08011863
H     -1.27325001     1.58527401     0.55485086
H     -0.61682043    -0.64955319    -0.39998230
H      3.68375270    -1.18877899    -0.34654204
H      1.41989693     1.32440483     2.22179964
H      0.03333933     0.51584914     2.99525029
H      1.67665656    -0.13047535     3.18729385
H      0.87182908    -2.31782492     2.02851821
