      18
Molecule_10826_b3lyp.xyz
C     -0.07326497     1.53823451     0.06847372
C      0.00748445     0.02162542    -0.01676783
C      0.70310801    -0.47709492    -1.28706032
C      0.81962553    -2.01114541    -1.28400680
C      1.30373678    -2.55722494     0.05021788
O      2.01722056    -3.52643407     0.15152101
C      0.76051278    -1.82548974     1.27894153
O      0.73240404    -0.41976531     1.12952639
H      0.93012671     1.97433735     0.04399877
H     -0.64887707     1.94110482    -0.76993403
H     -0.55537036     1.84129654     1.00131806
H     -1.01325434    -0.40224056     0.02251168
H      0.15729299    -0.14088167    -2.17549825
H      1.70201583    -0.02651716    -1.32839991
H     -0.17720212    -2.44872258    -1.44609467
H      1.46760007    -2.39065544    -2.07788179
H     -0.25388019    -2.22009425     1.48035904
H      1.39168372    -2.05599412     2.13949865
