      18
Molecule_15996_b3lyp.xyz
O     -0.10858283     1.45845957    -0.14490255
C      0.05951885     0.05687412     0.01158540
C     -1.31705516    -0.57315055     0.03696061
C     -2.15810047    -0.60483462    -1.27583072
C     -2.57196224    -2.07440932    -0.96089615
C     -1.44087380    -2.10178469     0.06854456
C     -0.39302157    -3.11090024     0.24802765
O     -1.41383596    -2.90103303     1.23443811
H      0.76202532     1.86628261    -0.16685110
H      0.64559774    -0.37000823    -0.81925682
H      0.59227960    -0.18054723     0.94728952
H     -1.89730605    -0.13643667     0.85720898
H     -2.96068764     0.12801483    -1.36053202
H     -1.52275978    -0.53407862    -2.16280972
H     -3.55011264    -2.13797779    -0.47517104
H     -2.53389980    -2.80266141    -1.77436990
H     -0.45447929    -4.05353369    -0.29528444
H      0.61188317    -2.81690855     0.54925988
