      18
Molecule_8461_b3lyp.xyz
O     -0.05552597     1.39422320    -0.04266199
C     -0.02506583    -0.02141595     0.02608901
C      0.48187784    -0.59662567     1.39099012
C     -0.80965215    -1.31782786     1.83423339
O     -0.78606402    -2.06169584     3.01249748
C     -1.23712038    -2.02963350     0.52833096
C     -1.46276505    -0.56528700     0.05040859
C     -1.90680687    -0.25307177     1.50653728
H      0.85133203     1.71450077    -0.01658596
H      0.54182815    -0.43313395    -0.82098995
H      1.32376304    -1.28805693     1.29107048
H      0.76506511     0.21268798     2.07321501
H     -0.46286120    -1.49660606     3.72249182
H     -0.49497621    -2.64442587     0.00959001
H     -2.17335886    -2.57843533     0.64628988
H     -2.08773392    -0.32690886    -0.80800588
H     -2.90844878    -0.62606612     1.72893770
H     -1.77605067     0.76873462     1.86915332
