      13
Molecule_9032_b3lyp.xyz
C      0.22479247     1.41540243     0.09234785
C     -0.07934421    -0.10066574    -0.02763396
C     -1.53148163    -0.34673467    -0.00385582
N     -2.67246954    -0.52035592     0.03206755
C      0.53610385    -0.68441525    -1.21860201
C      1.08348707    -1.13908946    -2.19233684
C      1.70312907    -1.70061145    -3.37032922
O      2.88131191    -1.61185853    -3.62259220
H      1.30554422     1.56618536     0.12081014
H     -0.18612904     1.95492931    -0.76281877
H     -0.22024729     1.81033482     1.00803211
H      0.34414623    -0.60533882     0.85193944
H      0.99975544    -2.23158647    -4.04171014
