      11
Molecule_5202_b3lyp.xyz
O     -0.01661017    -0.01215816     0.11434002
C     -0.02262537     1.16817008    -0.03254793
O      1.08890179     1.91738149     0.26464249
C      1.02493477     3.26769334     0.12947122
C      2.07449182     4.10288553    -0.06425764
O      1.56314199     5.37459865    -0.09090257
C      0.23904500     5.21804742     0.08078930
N     -0.14732738     3.98924342     0.22335354
H     -0.85848137     1.77907101    -0.39916625
H      3.13546464     3.98568939    -0.18339388
H     -0.36560709     6.11070523     0.09021050
