      20
Molecule_10535_b3lyp.xyz
C      0.08385176     1.60028771     0.00649090
C      0.25020056     0.08067237    -0.07255327
C      0.51933639    -0.56016267     1.29415575
C      0.68021668    -2.07756789     1.24039832
C      2.04610884    -2.64122448     0.86994677
C      1.55995671    -2.74747737     2.28641334
C     -0.47906104    -2.80763210     0.79667830
C     -1.45947900    -3.40198302     0.43035146
H      0.98313562     2.07985145     0.40977609
H     -0.10728573     2.03126499    -0.98117702
H     -0.75459191     1.87446946     0.65657152
H     -0.65014536    -0.37051422    -0.50536622
H      1.07390391    -0.16717769    -0.75419976
H      1.43237631    -0.13190778     1.72764011
H     -0.29789775    -0.31199552     1.98362241
H      2.07355161    -3.54098198     0.26735420
H      2.82561214    -1.92094029     0.64503611
H      2.00649852    -2.10331724     3.03638559
H      1.25096448    -3.72020485     2.64976682
H     -2.32054296    -3.93091256     0.10540579
