      16
Molecule_4501_b3lyp.xyz
C     -0.19072883     1.46858221     0.03976809
C     -0.05998940    -0.01553316    -0.01849980
N     -0.18037307    -0.76461339    -1.08613515
C      0.01689804    -2.07872687    -0.68370501
C     -0.04576432    -3.22450294    -1.63999598
C      0.25999608    -2.09264744     0.66319801
O      0.51710127    -3.05644869     1.58467886
N      0.21216213    -0.78748097     1.08844572
H      0.72901640     1.95075822     0.39274340
H     -0.40591272     1.83423995    -0.96517344
H     -1.00397035     1.78588194     0.70382820
H      0.13602790    -4.18196903    -1.13699366
H     -1.02652946    -3.29138096    -2.12421227
H      0.70207817    -3.12648508    -2.43495459
H      0.51739378    -3.90797553     1.13647618
H      0.35334745    -0.48226689     2.03675609
