      19
Molecule_9937_b3lyp.xyz
C      1.88661441    -3.87880541     1.61170925
C      1.04401691    -2.81747833     0.93704242
N      0.07643623    -1.97646350     1.63164439
C     -0.12537317    -2.08275539     3.06810864
C      1.29315398    -1.33299688     1.09032125
C      2.39852593    -0.80135486     1.99294827
C      1.04678486    -0.47949126    -0.05235341
C      0.88128855     0.23890122    -1.00252802
H      2.29526327    -3.57105684     2.57507207
H      1.29018824    -4.78303651     1.77692061
H      2.72622977    -4.15353179     0.96472385
H      0.68361673    -3.13017744    -0.04280449
H      0.76761393    -2.30360115     3.66868880
H     -0.55185739    -1.14268208     3.43161381
H     -0.85838495    -2.87455108     3.25409102
H      3.31332793    -0.66101706     1.40984260
H      2.11530576     0.17315539     2.40289721
H      2.62839805    -1.46725604     2.82494272
H      0.71701175     0.86828842    -1.84172319
