      14
Molecule_19579_b3lyp.xyz
O      0.00446236    -0.01224070     0.04747950
C     -0.01419338     1.16776121    -0.05321568
C     -1.05722201     2.32207711     0.02232837
N     -0.02665764     2.91482747     0.95315443
C      0.99610493     2.35224180    -0.00460726
C      0.68462143     3.04866366    -1.34821355
N     -0.05838090     2.17745913    -2.29080235
C     -0.80167070     3.02683031    -1.32871533
H     -2.07433299     2.20934475     0.39145052
H     -0.04191150     3.93579428     0.93368553
H      2.02541889     2.26957353     0.33766957
H      1.28178267     3.87354009    -1.71883883
H     -0.07679656     2.60564872    -3.21509568
H     -1.43231475     3.83367040    -1.68323337
