      17
Molecule_20129_b3lyp.xyz
O      1.14976602     1.81515706     0.43469269
C      0.52456550     0.57987261     0.09465170
C      1.03676608     0.02357918    -1.21375526
C      0.11386798    -0.67370325    -2.14172123
N      0.65886937     0.64912470    -2.48753333
C      0.68427361    -0.42308609     1.22256674
C     -0.28534926    -0.50723996     2.31684391
O     -0.27389648    -1.48078641     1.26697806
H      2.09275569     1.73347205     0.25527587
H     -0.54430644     0.80660793    -0.00673999
H      2.07845743    -0.30125175    -1.18232208
H      0.47745988    -1.49419455    -2.75291988
H     -0.92810090    -0.75710594    -1.84529362
H     -0.03591969     1.37389992    -2.31993400
H      1.71243542    -0.73676912     1.42009904
H      0.02974478    -0.87047768     3.29354251
H     -1.14321239     0.16372668     2.32353138
