      19
Molecule_3512_b3lyp.xyz
C     -0.19444946     1.38238639    -0.20037904
C      1.24797698     1.13433896     0.16466882
C      0.29000410    -0.02631020     0.04474334
C     -0.14942400    -0.78847469     1.26304606
C     -1.41713910    -1.69085579     1.18338423
C     -0.69021240    -2.72731315     2.08146761
C      0.65401727    -2.04733760     1.70743922
H     -0.83634524     1.83350145     0.54961108
H     -0.42522398     1.68127459    -1.21698375
H      2.00374524     1.26356778    -0.60226761
H      1.57473461     1.41889115     1.15979678
H      0.40854527    -0.64412645    -0.84344519
H     -0.24471515    -0.09727182     2.10984596
H     -2.36473968    -1.27517581     1.53523961
H     -1.56281262    -2.07183800     0.16694426
H     -0.93360060    -2.58695938     3.13885833
H     -0.81065852    -3.78542469     1.83772525
H      1.12515387    -2.53448413     0.84706883
H      1.40736386    -1.92442121     2.48967946
