      19
Molecule_9627_b3lyp.xyz
C      0.00729597     1.53074618     0.13008349
C     -0.22220253     0.04069198    -0.15232047
C      0.65887895    -0.49955111    -1.27215174
C      0.42096772     0.10762974    -2.64351966
N      2.03137739    -0.81248798    -0.88169801
C      1.13946882    -1.93212029    -1.26219981
C      0.80912727    -2.90634231    -0.18589176
O      0.40147238    -4.02111454    -0.40170071
H      1.06069343     1.71880187     0.36014670
H     -0.27345212     2.16048812    -0.71955749
H     -0.58867522     1.85458178     0.98822724
H     -0.02406773    -0.52309418     0.76252270
H     -1.27323187    -0.13726838    -0.41237205
H      0.65608709     1.17697762    -2.64515320
H      1.04424589    -0.37485314    -3.40272686
H     -0.62544496    -0.00338215    -2.94662550
H      2.68408622    -0.62193657    -1.63818636
H      1.25775428    -2.39793462    -2.23804191
H      0.98067187    -2.53408393     0.84690206
