      17
Molecule_9311_b3lyp.xyz
C      0.04989631     1.51814416     0.00856862
C     -0.02972708    -0.00919145     0.06061650
C     -1.46465583    -0.51682704    -0.07025217
N     -1.50339815    -1.97059456    -0.02637769
C     -2.68232647    -2.64926149     0.03515738
N     -3.81517168    -2.06196653     0.15635307
C     -2.53372829    -4.09742241    -0.02622024
N     -2.45740972    -5.25001174    -0.08057963
H      1.08410914     1.86045826     0.10320054
H     -0.34509869     1.90413195    -0.93706659
H     -0.52819795     1.97192758     0.82032177
H      0.58072275    -0.43617614    -0.74704581
H      0.39576309    -0.37647463     1.00232738
H     -2.08877368    -0.13755663     0.74559021
H     -1.92092149    -0.15033364    -1.00141306
H     -0.68081932    -2.47944414    -0.30538326
H     -4.57126745    -2.73739905     0.23012923
