      17
Molecule_4783_b3lyp.xyz
C     -0.13261889     1.44583780     0.18337129
N     -0.03524096     0.06196784    -0.27093891
C     -1.13959609    -0.76037784    -0.14263139
C     -1.28442117    -2.10294885     0.05793081
C     -2.70033059    -2.36720993    -0.01309793
C     -3.37563373    -3.69371794     0.14162536
C     -3.29206496    -1.16885066    -0.23802055
O     -2.34456836    -0.17039071    -0.32143838
H      0.80939514     1.95228969    -0.03918074
H     -0.92950030     1.95177962    -0.36472691
H     -0.34225555     1.54333554     1.25946219
H      0.80568412    -0.40299609     0.03893550
H     -0.49510974    -2.81693233     0.23438810
H     -3.16020612    -4.14238674     1.11843475
H     -4.46128560    -3.59830605     0.05058841
H     -3.03789835    -4.40702000    -0.61920309
H     -4.31391039    -0.84830146    -0.34816088
