      17
Molecule_8127_b3lyp.xyz
C     -0.31457739     1.53448642     0.08386490
C      0.06955860     0.07784162    -0.00365142
C     -0.68542055    -0.96547388     0.80779945
C      0.75552761    -0.66314386     1.11049311
O      1.70848850    -1.56440204     0.58112897
C      1.67668882    -1.53765777    -0.79190954
N      2.33836439    -2.31210527    -1.53501071
C      0.73571313    -0.44169057    -1.26873331
H      0.53443874     2.18341195    -0.15935779
H     -1.12683707     1.77220774    -0.61235838
H     -0.65812954     1.79464534     1.08999341
H     -1.43181293    -0.60130349     1.50609983
H     -0.91370408    -1.92738964     0.35886561
H      1.07827516    -0.21949904     2.04446310
H      2.89424131    -2.95958220    -0.97376654
H      0.04280745    -0.83643649    -2.01641225
H      1.32057060     0.34697573    -1.75512561
