      18
Molecule_18104_b3lyp.xyz
C     -0.07195120     1.49689575     0.00802247
C      1.42377491     1.93530453     0.02949593
C      2.13884381     0.76892503    -0.67410911
C      3.55349010     0.26445381    -0.30527288
C      3.36735692    -1.24517303    -0.31171524
C      2.07093629    -1.60540762    -0.32526274
C      1.24228049    -0.41119348    -0.33764598
C      0.01342263    -0.02031463     0.01361133
H     -0.63841026     1.89390996     0.85795504
H     -0.57745707     1.86848259    -0.89690318
H      1.59031099     2.90893656    -0.44034147
H      1.76347578     2.00226842     1.07007347
H      2.10977225     0.92454622    -1.76348581
H      4.33340030     0.60116460    -0.99619911
H      3.85786788     0.60054403     0.69776111
H      4.20186034    -1.93507933    -0.24520534
H      1.70014216    -2.62158734    -0.26491015
H     -0.81292572    -0.66124392     0.29782767
