      14
Molecule_806_b3lyp.xyz
C     -0.01500326     1.54404387     0.04042297
C     -0.01416623     0.00674466    -0.02721880
C      0.74594170    -0.50645665    -1.23158661
N      2.01919581    -0.69741768    -1.28088757
O      2.63105721    -0.37574250    -0.06923946
C      0.02105871    -0.78149767    -2.42779357
C     -0.66060315    -0.98898469    -3.39832570
H      1.00573418     1.92540994     0.12258020
H     -0.47306652     1.97689231    -0.85400313
H     -0.58140893     1.88646311     0.91146829
H      0.44978773    -0.40200281     0.87416551
H     -1.04065058    -0.36589520    -0.08009443
H      3.55370647    -0.58964317    -0.24536656
H     -1.24052398    -1.17897100    -4.26752151
