      14
Molecule_19763_b3lyp.xyz
O      0.01058066     1.44426067     0.00540426
C      1.36428367     1.78971347     0.02945463
C      2.08213503     0.62227175     0.60198250
O      1.10735388    -0.33942104     0.88014714
C      0.03786961     0.00591457    -0.01823450
C      0.40331944    -0.44719886    -1.40038538
C      1.56667632     0.05425902    -1.83651305
C      2.26834340     0.94333877    -0.90336161
H      1.54763620     2.83777479     0.21701745
H      2.90624182     0.62827718     1.30058290
H     -0.90043007    -0.37471929     0.38207943
H     -0.23512985    -1.11568764    -1.96299063
H      1.98850523    -0.16451019    -2.81150588
H      3.21541172     1.38648102    -1.18721331
