      12
Molecule_12163_b3lyp.xyz
N     -0.01664093     1.35834700     0.27459228
C      0.03594956    -0.02894268    -0.07211037
C     -1.31430788    -0.79502779    -0.27089615
O     -0.86636429    -1.26107991    -1.57854758
C      0.28885663    -0.50192451    -1.52368347
O      1.08038254    -0.32458625    -2.38687859
C     -1.61314758    -1.88838399     0.64220273
N     -1.83832502    -2.73683196     1.39329309
H      0.87314297     1.68885881     0.62594870
H     -0.27871879     1.94288564    -0.51156952
H      0.68733277    -0.56408874     0.62267043
H     -2.17508739    -0.12962409    -0.37151609
