      18
Molecule_16695_b3lyp.xyz
C     -0.13721879     1.51028595    -0.00285895
C     -0.01347531    -0.00456331    -0.00984647
C      1.27460397    -0.60582828    -0.67615225
O      2.00988499    -0.22892552     0.53918801
C      0.76668627    -0.64919131     1.18960026
C      0.70874929    -2.15041495     0.83149028
C      0.33807398    -3.26236399     1.74760495
C      1.06200519    -2.10986667    -0.45817805
H      0.81238575     1.97481854     0.27235692
H     -0.43265049     1.88060322    -0.99086302
H     -0.90355451     1.83502807     0.70982078
H     -0.95437875    -0.49233744    -0.28037815
H      1.70967976    -0.23359821    -1.60354050
H      0.66330287    -0.32782290     2.22704640
H     -0.67034489    -3.12390701     2.15858718
H      0.36285720    -4.22830741     1.23549830
H      1.01935755    -3.31507347     2.60638998
H      1.16798052    -2.90261703    -1.18451582
