      15
Molecule_13337_b3lyp.xyz
N     -0.15687914     1.23155365     0.40301326
C     -0.08233706     0.01056766     0.09584513
O     -1.18698560    -0.76576055     0.14379942
C     -0.99124758    -2.15778076    -0.11941008
O     -0.41778805    -2.81916394     0.97890235
C     -1.40012244    -3.62696858     1.63148025
C     -2.58226248    -3.60903069     0.70660654
C     -2.34182729    -2.78933344    -0.30906293
H      0.75573853     1.67044958     0.29746194
H      0.81789520    -0.52703896    -0.23090837
H     -0.30467942    -2.25009816    -0.97267662
H     -0.98089911    -4.63089061     1.77688841
H     -1.64374639    -3.21936871     2.62361920
H     -3.48415723    -4.17916677     0.88727644
H     -2.99470213    -2.53286771    -1.13122814
