      20
Molecule_5884_b3lyp.xyz
C      0.03612838     1.55987826    -0.06166819
C     -0.00537290     0.02355028     0.03099233
C     -1.36276519    -0.51323614     0.04961169
C     -2.49577381    -0.92443315     0.07227157
C     -3.87215758    -1.44662422     0.05807110
C     -3.85077403    -2.98505321    -0.01818455
C     -4.64786065    -0.97047167     1.29345753
O     -4.59228180    -0.91527003    -1.06368553
H      1.07136609     1.91378269    -0.07236315
H     -0.45699616     1.90738391    -0.97347604
H     -0.47571907     2.01384266     0.79105525
H      0.54771512    -0.41020449    -0.81218593
H      0.52406122    -0.30352915     0.93523971
H     -3.34667873    -3.41631294     0.85155730
H     -4.87703315    -3.36102245    -0.06077788
H     -3.31896574    -3.31623451    -0.91551936
H     -4.66527479     0.12087209     1.32632258
H     -5.67728149    -1.33621819     1.23810208
H     -4.18399170    -1.34560229     2.20882220
H     -4.04654133    -1.05140342    -1.84561905
