      12
Molecule_2499_b3lyp.xyz
N      0.00098117     1.27057600     0.00854950
C     -0.05913033     0.00602199     0.00263994
N     -1.27112535    -0.70433359     0.01039339
C     -1.18742951    -2.11032028     0.00239140
N     -2.18469753    -2.88512216     0.00668239
C     -2.49012805     0.02903631     0.02581061
O     -3.58430209    -0.45565732     0.03410964
H      0.96865427     1.58360756     0.00107429
H      0.80441986    -0.66792492    -0.00890908
H     -0.13795429    -2.43082665    -0.00813968
H     -1.86434350    -3.85280501    -0.00104492
H     -2.27541189     1.10658405     0.02906286
