      17
Molecule_4007_b3lyp.xyz
C      0.01042227     1.57572255    -0.04263914
C     -0.00951493     0.04619879     0.02086591
C      0.68152650    -0.58690533    -1.18906082
C      0.70639150    -2.09995328    -1.20547183
N      0.16179323    -2.73241657    -0.22811436
O      0.25313833    -4.11170958    -0.36424454
C      1.33921438    -2.73458658    -2.31552014
C      1.88749686    -3.20435331    -3.27888030
H      1.03578090     1.96165753    -0.06760667
H     -0.50276192     1.94560170    -0.93748849
H     -0.48685104     2.01227791     0.82883472
H      0.47842009    -0.29917530     0.93839212
H     -1.04170437    -0.31506143     0.07844880
H      0.20197996    -0.24903576    -2.11832845
H      1.71968213    -0.23340287    -1.25957950
H     -0.19185479    -4.42659418     0.43051060
H      2.36664789    -3.64098245    -4.12025732
