      15
Molecule_15569_b3lyp.xyz
O     -0.09138101     1.46007307    -0.01319961
C      0.04977146     0.05273727    -0.03001466
C     -1.34851248    -0.59789245     0.00230484
C     -1.29320549    -1.79764039    -0.97439653
C     -0.09385540    -1.49745059    -1.83197028
C      0.64117369    -0.49933857    -1.32820637
C      1.85027658     0.02626373    -1.85383974
N      2.83810515     0.50650258    -2.22393397
H      0.78600498     1.85641678     0.02752598
H      0.67046581    -0.27548084     0.81880810
H     -1.65382045    -0.87977374     1.01141663
H     -2.05179237     0.15559730    -0.36316191
H     -1.14831468    -2.75015365    -0.44642800
H     -2.20829233    -1.91430779    -1.56481799
H      0.14893015    -2.05076850    -2.73192599
