      15
Molecule_19003_b3lyp.xyz
O     -0.04432406    -0.01579793     0.04251772
C     -0.01321202     1.18719949    -0.03485913
N     -1.08700845     2.07146593    -0.13977228
C     -0.47375668     3.38399111     0.01791758
C      0.79249026     3.39513991    -0.88496489
C      1.50109124     4.32658803     0.12563945
C      0.74645459     3.30329674     1.00232989
C      1.16672923     2.15350974     0.00552415
H     -1.97193695     1.83271062     0.28175813
H     -1.16367506     4.22638894     0.03093599
H      0.80875798     3.42923395    -1.97522326
H      2.59170892     4.27494937     0.14837323
H      1.15523664     5.36418473     0.16803386
H      0.71787099     3.23259502     2.09116322
H      2.17328314     1.74161130     0.01211262
