      16
Molecule_3177_b3lyp.xyz
C      0.13720075     1.52782934    -0.04650620
N      1.28241481     0.60365082     0.07529271
C     -0.08385529     0.06660007     0.02269034
C     -0.59211252    -0.70026502     1.24826619
C     -1.35971569    -1.88049556     0.61809711
O     -0.82006390    -2.03939118    -0.69036440
C     -0.59351774    -0.73014784    -1.17844470
H     -0.04323530     2.15159979     0.82535538
H     -0.03314516     2.02869441    -0.99785820
H      1.74068113     0.49887268    -0.82736120
H      0.26333060    -1.04197658     1.83574558
H     -1.22982900    -0.09238500     1.89544903
H     -1.23177815    -2.82667227     1.14856398
H     -2.43798894    -1.65854515     0.55999327
H     -1.53075902    -0.29087999    -1.56346916
H      0.12440527    -0.78637380    -2.00312906
