      14
Molecule_16940_b3lyp.xyz
O     -0.02484471     0.00768026    -0.00054932
C      0.00966515     1.20011006    -0.01162697
O     -1.09522527     2.01028239     0.01616488
C     -0.55960150     3.35689354     0.06123588
C     -0.03995663     3.59937354     1.49099283
C      1.26063242     2.74066382     1.45375648
C      1.18483490     2.18465225     0.00466725
O      0.60932724     3.28390305    -0.72023858
H     -1.28708066     4.04581609    -0.36116839
H      0.17111619     4.65917539     1.64635533
H     -0.76195228     3.26929103     2.23915342
H      2.15495069     3.35565510     1.56574501
H      1.28463182     1.94852852     2.20421087
H      2.10152888     1.82991053    -0.45652816
