      13
Molecule_23899_b3lyp.xyz
F      0.13696932     0.11195206    -0.14163976
C     -0.01805374     1.43725867     0.00018044
F      1.21026461     1.98126737     0.03838694
F     -0.62681032     1.89420235    -1.10298768
C     -0.81498877     1.77788909     1.24361642
C     -0.14435604     1.26201423     2.52472169
C     -0.83609021     1.78344338     3.76647242
O     -1.22848687     1.09794648     4.67248650
H     -0.92329940     2.86726908     1.26821183
H     -1.81365478     1.34864301     1.12166005
H     -0.12526481     0.17073476     2.55789368
H      0.89186848     1.62606325     2.54896380
H     -0.95731519     2.89251931     3.78996297
