      16
Molecule_1280_b3lyp.xyz
C     -0.05816447     1.47719602     0.05637974
C      0.03468124    -0.04864120    -0.03036106
C      0.75006932    -0.50142473    -1.29293548
O      0.78723180    -1.93767853    -1.28393095
C      1.40050520    -2.50420636    -2.35108696
N      1.42384605    -3.86479703    -2.20513081
O      1.88203764    -1.89309852    -3.27609651
H      0.93578223     1.93748077     0.06428304
H     -0.60857550     1.89257231    -0.79475333
H     -0.57487820     1.78636004     0.96922176
H      0.56746136    -0.44606871     0.84123201
H     -0.96830298    -0.49070943    -0.01250951
H      0.23252877    -0.15876598    -2.19565934
H      1.77386001    -0.11432920    -1.33795967
H      0.80547066    -4.28772459    -1.53391335
H      1.65268242    -4.39170043    -3.03026451
