      22
Molecule_8178_b3lyp.xyz
C     -0.09279686     1.53617634     0.01632497
C      0.06653558     0.01631598     0.03024946
C      1.00792522    -0.55428560    -1.08688327
C      1.98278379    -1.36051222    -0.20955136
C      2.28805566    -0.35685961     0.93491747
C      0.77935713    -0.58314347     1.27646449
C      0.20175930    -0.27715315     2.64002403
C      1.01793075    -2.04976832     0.79414848
H      0.86816774     2.04856293     0.13502080
H     -0.52531750     1.87010062    -0.93308313
H     -0.75577121     1.87962718     0.81764195
H     -0.93209372    -0.43111589    -0.05267247
H      0.47526822    -1.17932116    -1.81018411
H      1.51476635     0.24171736    -1.64332837
H      2.77538801    -1.91196466    -0.71666000
H      2.94694687    -0.77616224     1.70009904
H      2.62481404     0.64961262     0.66834820
H      0.22623102     0.79667391     2.85670850
H     -0.84326536    -0.60346294     2.70876995
H      0.76163129    -0.78679212     3.43141481
H      0.16269777    -2.60529591     0.39418165
H      1.54164647    -2.65257006     1.54092123
