      16
Molecule_20886_b3lyp.xyz
C     -0.00295523     1.56344205     0.05085982
C     -0.01698399     0.04001094     0.19370365
C     -1.39421180    -0.54825622    -0.12927954
N     -1.42098624    -2.00101025    -0.02214907
C     -1.84035550    -2.80646411     0.96941078
N     -1.61948486    -4.05875680     0.63320393
N     -1.04627595    -4.00607696    -0.59798404
N     -0.92011567    -2.78471622    -1.00068368
H      0.98689285     1.96537087     0.28248435
H     -0.25621876     1.86974245    -0.96967842
H     -0.72134784     2.03667615     0.72931988
H      0.71857406    -0.41433534    -0.47805661
H      0.26438360    -0.24887703     1.21314771
H     -2.15791000    -0.15719570     0.54976337
H     -1.69254811    -0.29534669    -1.15024684
H     -2.29097259    -2.45681402     1.88396032
