      15
Molecule_2054_b3lyp.xyz
O      0.01725592    -0.08031353    -0.04609822
C     -0.01125949     1.12330326     0.05622395
C     -1.30315788     1.91875841     0.12134551
C     -1.32169123     2.86816385     1.33633658
C     -0.02523307     3.62145990     1.47801513
C      1.11824380     3.22546040     0.92121711
C      1.26317489     1.96054353     0.11380140
H     -1.35907192     2.52530848    -0.79325440
H     -2.14709008     1.22568045     0.12406324
H     -2.15875242     3.56944459     1.24114437
H     -1.52061452     2.29588808     2.25383766
H     -0.04493968     4.52944207     2.07531451
H      2.02128093     3.81521764     1.05825271
H      2.06844035     1.32480214     0.49883837
H      1.54978585     2.20113297    -0.92230117
