      14
Molecule_1428_b3lyp.xyz
C      0.20016083     1.50851820     0.23803819
N      0.25769214     0.06746398     0.14342334
C      0.59034140    -0.53509165    -0.90929305
C      1.03352989    -0.03936398    -2.25744332
O      0.61223281    -1.92450119    -0.92495214
C     -0.12986983    -2.62308048    -0.01043712
O     -0.03346867    -3.80794020     0.07736000
H      0.86530102     1.83683901     1.04418977
H      0.46860684     2.05506688    -0.67497411
H     -0.81450324     1.80495836     0.52622590
H      1.15554919     1.04228936    -2.28335549
H      1.98279433    -0.51408407    -2.52120755
H      0.30381777    -0.33531651    -3.01777271
H     -0.79401198    -1.97623498     0.57621514
