      12
Molecule_23687_b3lyp.xyz
F      0.09894992     0.05425834     0.00294206
C     -0.04454098     1.36395737     0.01107969
C     -1.24791268     1.99179081     0.03057183
C     -1.16782212     3.41681402     0.03627164
N     -0.07579713     4.12463769     0.02461618
C      1.15178701     3.47252444     0.00424102
N      2.30907752     4.00639768    -0.00836813
N      1.10631122     2.05252535    -0.00158201
H     -2.17836703     1.44688377     0.04083665
H     -2.10166853     3.97859983     0.05189848
H      2.19879482     5.01856990    -0.00147569
H      1.99271064     1.56734328    -0.01607549
