      17
Molecule_20057_b3lyp.xyz
C     -0.16910686     1.35107677    -0.20025593
C      1.26500390     0.98494568     0.08981758
C      0.20974177    -0.08568899     0.07363337
C     -0.22511899    -0.74548838     1.36152449
C     -1.63655331    -1.39846825     1.28723164
O     -1.41193950    -2.78406478     1.64389831
C     -0.07665592    -2.88532390     1.84738320
N      0.66770296    -1.86799655     1.73307420
H     -0.72041343     1.88682434     0.56618486
H     -0.43947827     1.62794715    -1.21301090
H      1.97973485     1.01157585    -0.72467156
H      1.67921781     1.26782209     1.05168458
H      0.21500286    -0.75807074    -0.78077111
H     -0.18296288     0.00229167     2.16356310
H     -2.35504080    -0.97729897     1.99436370
H     -2.06562433    -1.36878054     0.28109668
H      0.25731048    -3.88422110     2.10707394
