      11
Molecule_21375_b3lyp.xyz
N     -0.03904997     1.38890106     0.01015935
C      1.29143032     1.77604535    -0.00043079
N      2.16189112     0.80320450    -0.01440136
C      1.36680843    -0.33202722    -0.01303959
N      1.57382088    -1.63143546    -0.02245932
O      0.28194639    -2.15977874    -0.01274943
C     -0.66208023    -1.18225852     0.00197669
C     -0.01765123     0.00845789     0.00237376
H     -0.83404166     2.00269580     0.02177640
H      1.54950890     2.82696893     0.00297153
H     -1.68472620    -1.51882168     0.01009052
