      16
Molecule_14541_b3lyp.xyz
O     -0.13845152     1.36315941    -0.02108380
C     -0.06303295    -0.03823927     0.02231115
C      1.02931308    -0.60552360    -0.73088243
C      1.96601756    -1.04785936    -1.34248165
C     -0.46564825    -0.81334317     1.26545765
C     -1.53459106    -0.03434694     2.04018068
C     -2.43970151    -0.03439870     0.76663431
C     -1.35385902    -0.80909353     0.00916318
H      0.67687059     1.71201195     0.35650867
H      2.78378723    -1.43991214    -1.89480358
H      0.17424109    -1.59472912     1.65751792
H     -1.96417848    -0.61761773     2.85692898
H     -1.22825449     0.94291310     2.42145830
H     -3.34535631    -0.62836813     0.90451062
H     -2.70593214     0.93929140     0.35130370
H     -1.51918044    -1.58765885    -0.72540654
