      12
Molecule_19636_b3lyp.xyz
N     -0.08744330    -1.13258957     0.00455370
C     -0.04998133     0.02562920     0.00925871
C      0.00839483     1.43650908     0.01223173
C     -0.87954869     2.45641452     0.77537954
C      0.31366075     3.44224891     0.77285094
C      1.15983323     2.47811760     0.02584769
N      0.33184045     3.47641576    -0.73416667
C     -0.82335980     2.48160994    -0.71914709
H     -1.68317448     2.23677223     1.46279888
H      0.56325794     4.30293085     1.37938865
H      2.23055167     2.38193515    -0.09860181
H     -1.56887582     2.36793393    -1.49498487
