      18
Molecule_12449_b3lyp.xyz
O     -0.01989739    -0.09998272    -0.01027693
C      0.00157562     1.10866083    -0.01034163
C     -1.27899636     1.93412442     0.00258916
C     -1.50038574     2.80802045     1.25560423
C     -0.41542863     3.87332623     1.50816182
C      0.90008329     3.31089280     1.99730695
C      1.65710587     2.44306717     1.32697680
C      1.32298914     1.88094025    -0.04098823
H     -1.26163350     2.58978041    -0.87985825
H     -2.11220747     1.23622849    -0.11489600
H     -2.46827529     3.30901311     1.13719162
H     -1.58665431     2.16404187     2.13816184
H     -0.25847754     4.44647281     0.58159147
H     -0.79401922     4.58971516     2.24352934
H      1.23755376     3.63999888     2.97686172
H      2.57534237     2.08015385     1.77924430
H      2.10046800     1.19185346    -0.37443373
H      1.24669443     2.69570966    -0.77412404
