      20
Molecule_13886_b3lyp.xyz
C      0.03787053     1.51511916    -0.06866243
C      0.00686741    -0.01093056     0.10175218
C      0.71636605    -0.42496150     1.39844724
C     -1.44037634    -0.52194107     0.01969560
C     -1.63119225    -2.04869412    -0.04134817
O     -2.85038930    -2.25557993     0.65729809
C     -2.83896235    -1.29804576     1.68331263
O     -2.19571151    -0.14267346     1.17937219
H      1.06517748     1.89207280    -0.04831198
H     -0.41414352     1.81969798    -1.01849722
H     -0.51872911     2.00154748     0.73877034
H      0.53843643    -0.46020766    -0.75052941
H      0.78122455    -1.51089524     1.51503298
H      1.73837896    -0.03399457     1.41412075
H      0.18536436    -0.02287564     2.26605767
H     -1.92193659    -0.06358470    -0.85627274
H     -1.74842305    -2.42825962    -1.05839077
H     -0.80357073    -2.58457595     0.44654386
H     -3.87336522    -1.06267142     1.95589564
H     -2.29208897    -1.67216111     2.56774906
