      14
Molecule_6078_b3lyp.xyz
N     -0.12686497     1.00818553     0.32473757
C     -0.17269145    -0.30563910    -0.05171966
O      0.75643482    -1.07224172     0.07005177
C     -1.49345860    -0.70768934    -0.72684861
O     -1.58234173    -2.11158547    -0.86795208
C     -1.83971440    -2.77222591     0.29670958
N     -1.79233353    -4.11851420     0.08153930
O     -2.12212967    -2.22907991     1.33824470
H      0.67583536     1.29604756     0.86269712
H     -0.97570569     1.53315516     0.45607822
H     -2.34613535    -0.32166590    -0.15983925
H     -1.51870645    -0.30180102    -1.74189731
H     -1.28497196    -4.44717723    -0.72342630
H     -1.76001232    -4.68746684     0.91057872
