      18
Molecule_15334_b3lyp.xyz
C      0.10859581     1.52361907     0.09779088
C      0.04839885     0.06890799     0.07794786
C      0.00197082    -1.13579369     0.06700319
C     -0.02470552    -2.57139578     0.03871760
C     -0.55044021    -3.36630165     1.22592905
C     -1.33248406    -3.34960698    -0.05353493
C     -2.64961399    -2.62682103    -0.12898763
O     -3.65451428    -3.49598079     0.38019254
H      1.09949139     1.88203259    -0.20314824
H     -0.62329983     1.96752194    -0.58669200
H     -0.09298202     1.91931511     1.09972734
H      0.80967987    -3.02301908    -0.49094147
H     -0.01738243    -4.26835361     1.50385808
H     -0.94418697    -2.79572948     2.05941720
H     -1.28966651    -4.25028226    -0.65904807
H     -2.59032432    -1.69380577     0.45013345
H     -2.85960325    -2.34838978    -1.17412687
H     -4.50443682    -3.05830636     0.27490548
