      16
Molecule_3229_b3lyp.xyz
C     -0.03672855     1.52531180     0.04730131
C      0.09696573     0.03694793     0.01403220
N     -0.85183693    -0.87416334     0.70564224
C      0.61000680    -0.93981350     0.99430800
C      1.30762223    -1.75692415    -0.13088572
C      0.34401262    -2.20695115    -1.19658453
C      0.76962250    -0.76327584    -1.15168212
H      0.89908022     2.00973247    -0.25331828
H     -0.82294216     1.87003718    -0.63554619
H     -0.28706305     1.87596624     1.05470755
H     -1.27534806    -0.33845666     1.46354768
H      0.98505922    -0.79669160     2.00010972
H      2.31287372    -2.14679527    -0.04025152
H      0.79997015    -2.78190278    -1.99710156
H     -0.66833629    -2.49033257    -0.93990808
H      1.30165061    -0.27797591    -1.96025567
