      12
Molecule_1159_b3lyp.xyz
C      0.01020929     1.53907266     0.03968064
C     -0.00805734     0.00145983     0.00963966
O      0.70684836    -0.42640368     1.16005348
C     -1.38445846    -0.51681176     0.00592255
C     -2.50414692    -0.94944974     0.03277906
C      0.68469121    -0.48034519    -1.21813952
N      1.24312704    -0.86058619    -2.15518698
H      1.04616292     1.88337796     0.05867577
H     -0.49509956     1.94547732    -0.83781099
H     -0.50105451     1.87358320     0.94411994
H      0.63108463    -1.38597582     1.22440123
H     -3.49543274    -1.33233087     0.05016943
