      19
Molecule_2103_b3lyp.xyz
C     -0.01331075     1.52645029     0.06332229
C      0.02863614     0.00752846    -0.01168835
C      0.71042969    -0.51724936    -1.28253609
C      0.83012505    -2.04753811    -1.24685638
C      1.48559418    -2.49412225     0.06688231
C      0.75786355    -1.85964190     1.25363004
O      0.71360661    -0.44700678     1.15230289
H      1.00146910     1.93641218     0.04595385
H     -0.56929726     1.93905568    -0.78407194
H     -0.49648693     1.84980633     0.98919445
H     -1.00510789    -0.38601985     0.01356505
H      0.14599406    -0.19106562    -2.16390197
H      1.70924941    -0.06642867    -1.35104518
H     -0.17250386    -2.49131583    -1.32033541
H      1.39740031    -2.41161282    -2.11006214
H      1.47278490    -3.58585537     0.16436970
H      2.53535050    -2.17597496     0.08569500
H     -0.26782141    -2.26513385     1.32005828
H      1.26479957    -2.08112616     2.19782743
