      16
Molecule_5333_b3lyp.xyz
N      0.07603128     1.42149784     0.30755893
C      0.00313320     0.04521530     0.01706393
C     -1.14660799    -0.73506023     0.02460579
N     -0.70888516    -2.03923539    -0.08501354
C     -0.93848260    -3.36296863    -0.69742326
C      0.62662293    -3.50806010    -0.77178184
C      0.64140613    -2.07483501    -0.26791750
C      1.14644900    -0.79752944    -0.21072431
H      0.82689653     1.87724936    -0.19584124
H     -0.79003606     1.90536960     0.10641470
H     -2.17039912    -0.46755869     0.23122684
H     -1.48046522    -4.06476663    -0.05679882
H     -1.41958643    -3.31262007    -1.67923052
H      1.05486891    -4.26472404    -0.10846685
H      1.01304133    -3.66281349    -1.78244895
H      2.17168484    -0.47060112    -0.29279873
