      12
Molecule_422_b3lyp.xyz
C     -0.15565234     1.55500965     0.06494974
C      0.00650894     0.04408910    -0.04806912
C      0.88495480    -0.53785340    -1.17421028
O      1.78987249    -1.12305573    -0.18260653
C      1.06156615    -0.60254809     0.85948298
O      1.29167835    -0.68738372     2.02205188
H      0.80539982     2.06661447    -0.04788484
H     -0.83685458     1.93378907    -0.70286939
H     -0.56474532     1.81951989     1.04396762
H     -0.95863475    -0.46177198     0.04812546
H      0.43964476    -1.31509280    -1.79814823
H      1.41229764     0.19488874    -1.78975832
