      16
Molecule_16819_b3lyp.xyz
C     -0.15640854     1.60042023     0.00959539
C      0.04414547     0.08440063     0.01631760
N      0.90175215    -0.39994065    -1.05092499
C      1.86559067    -1.30018583    -0.66429182
O      2.63201869    -1.88960837    -1.37987408
N      1.81507959    -1.42994541     0.77871545
C      2.21368694    -0.15659137     1.42953740
C      0.78200770    -0.47900225     1.23353060
H      0.80067328     2.12459883     0.07640410
H     -0.66298469     1.92433731    -0.90548524
H     -0.77943239     1.90226892     0.85741815
H     -0.94384674    -0.39756630    -0.03534221
H      0.72774877    -0.23454404    -2.02857209
H      2.66162021    -0.27575980     2.41082507
H      2.67356833     0.60191819     0.80210924
H      0.18184532    -0.79506240     2.08024071
