      17
Molecule_1100_b3lyp.xyz
C      0.38964645     1.43944421     0.04077553
C     -0.13071846     0.02101142    -0.00155912
O     -0.60412090    -0.53006569     0.96627116
C     -0.04861668    -0.74405184    -1.34074079
C      0.82684644    -1.98961889    -1.13492790
C     -1.47347716    -1.12729986    -1.76864611
O      0.54455368     0.13795178    -2.29367131
H      1.44297431     1.46307225    -0.25527528
H     -0.14006019     2.05681416    -0.69132553
H      0.26363030     1.84191004     1.04624608
H      0.42888392    -2.60333172    -0.32387664
H      0.85076990    -2.59122842    -2.05084511
H      1.85238301    -1.70013875    -0.88773649
H     -2.06760692    -0.23064499    -1.96776158
H     -1.44482311    -1.73077807    -2.68319734
H     -1.96277892    -1.70668599    -0.98269794
H      0.60000067    -0.33047145    -3.13273467
