      19
Molecule_14232_b3lyp.xyz
C     -0.06064783     1.59066388    -0.05443685
C      0.08726192     0.07978670    -0.07584037
C      0.75083574    -0.68513694    -1.24296384
C      2.17134691    -0.06972632    -1.32550392
C      2.38352391    -0.63389930     0.08252494
C      3.65398505    -0.70600786     0.86821605
C      1.30613846    -1.63568621    -0.11388391
N      1.09082079    -0.53034604     0.86579349
H      0.87856884     2.10706008    -0.26690375
H     -0.80359512     1.91494113    -0.79171390
H     -0.40175487     1.91544493     0.93401838
H     -0.87402624    -0.38618708     0.16973470
H      0.20664653    -0.96378304    -2.14415358
H      2.79522137    -0.61229915    -2.04168842
H      2.27016539     1.00641964    -1.50215158
H      3.99823905     0.29596465     1.14895646
H      3.50356579    -1.27752416     1.78797560
H      4.44882240    -1.18492133     0.28604113
H      1.20605389    -2.68778032     0.12077466
