      17
Molecule_4051_b3lyp.xyz
C     -0.01095963     1.46358964     0.05868799
C     -0.00058960    -0.03083640     0.00398053
C     -0.04158376    -0.80238745    -1.08577199
C     -0.01505990    -2.27688688    -0.77469511
C      0.05154489    -2.28447778     0.74041418
C      0.06203126    -0.86222146     1.26983442
N      0.09479415    -3.28963688     1.51669197
O      0.07349671    -4.49317428     0.78459926
H      0.88864444     1.84886225     0.55569205
H     -0.06134110     1.90206336    -0.94151525
H     -0.86682053     1.83373868     0.63762787
H     -0.08947862    -0.42477451    -2.10172708
H     -0.90069375    -2.81922119    -1.13296869
H      0.84506194    -2.80402423    -1.20959662
H      0.96370754    -0.65247280     1.86106269
H     -0.78845604    -0.66795695     1.93730502
H      0.11030204    -5.15492382     1.48326079
