      17
Molecule_11008_b3lyp.xyz
C      0.01137147     1.52714204    -0.04989654
C     -0.01052984     0.01975109    -0.00070150
C      1.22735910    -0.75928072    -0.21537646
N      0.65751546    -0.61964689     1.15957925
C     -0.09901090    -1.79013431     1.51374290
O      0.18728948    -2.50930764     2.42764561
C     -1.29774334    -1.96444574     0.56525789
C     -1.34208583    -0.68592172    -0.28357840
H      0.99207893     1.91520301     0.23593525
H     -0.21785393     1.88037840    -1.06156583
H     -0.73464759     1.94867059     0.63208653
H      1.16553031    -1.73636153    -0.68922061
H      2.17864649    -0.25351167    -0.34923378
H     -1.12790539    -2.87075836    -0.02523258
H     -2.20384050    -2.14140896     1.14829425
H     -2.16046334    -0.03457658     0.03881461
H     -1.48602891    -0.87787475    -1.35080757
