      18
Molecule_19754_b3lyp.xyz
C     -0.14670268     1.56713351    -0.01694061
C      0.03508022     0.05108755    -0.00948467
C      0.94697254    -0.52768018    -1.09052873
C      2.36273000    -0.60371113    -0.50164720
C      2.28413823    -0.07899279     0.92713040
C      0.83680734    -0.55806519     1.17238728
O      0.90528958    -1.94975306     0.81066880
C      1.45663850    -1.81308098    -0.48864771
H      0.80846207     2.09827283    -0.05632815
H     -0.72739744     1.87894689    -0.89121273
H     -0.68765569     1.90562391     0.87389320
H     -0.94655473    -0.43634639    -0.04217943
H      0.76278864    -0.40699649    -2.14984837
H      3.25241222    -0.54641586    -1.11361598
H      2.98853126    -0.57795667     1.59859250
H      2.40605499     1.00244269     1.01666265
H      0.42165246    -0.45684309     2.17333761
H      1.62485713    -2.74439603    -1.00998993
