      17
Molecule_1135_b3lyp.xyz
C     -0.36276472     1.59867914    -0.04086555
C      0.03056867     0.12502883     0.01429825
C     -1.17668002    -0.78570353    -0.21696256
C      1.25174845    -0.26999081    -0.89105912
C      1.92026764    -0.87928993     0.34858686
O      2.87322796    -1.58411002     0.51490460
C      0.85372795    -0.29479241     1.28439722
H      0.50282487     2.24924965     0.12492067
H     -0.79222144     1.85614720    -1.01568529
H     -1.11055427     1.83631104     0.72420847
H     -1.62784831    -0.59821003    -1.19765055
H     -0.89409161    -1.84355588    -0.17732076
H     -1.94656787    -0.61807068     0.54437015
H      1.06523895    -0.95698753    -1.72152052
H      1.81374617     0.58972367    -1.27281987
H      1.24070247     0.55401599     1.85925958
H      0.38806991    -0.99918347     1.97967574
