      20
Molecule_9856_b3lyp.xyz
C      0.10893846     1.45384103    -0.31129009
C      0.04295519     0.01849334    -0.07351796
C     -0.00111779    -1.16898858     0.12276205
C     -0.07569249    -2.61029979     0.35578439
C     -1.46337613    -3.20337167     0.10364279
C     -2.55451355    -2.67411077     1.01215591
C     -1.81702782    -3.55694092    -1.31817582
C     -1.51756791    -4.65138909    -0.31774239
H      1.04210930     1.73215338    -0.81387749
H     -0.71908394     1.79182184    -0.94444701
H      0.05861770     2.01828851     0.62661054
H      0.65507235    -3.12078946    -0.28469361
H      0.22610299    -2.82919239     1.39011983
H     -2.65223020    -1.58818868     0.91223289
H     -3.52158364    -3.12631823     0.77186108
H     -2.33471946    -2.89503900     2.06378974
H     -2.84515969    -3.42377390    -1.63783117
H     -1.08458787    -3.35876243    -2.09370559
H     -0.58382967    -5.19509032    -0.42028756
H     -2.34333958    -5.25643456     0.04176437
