      15
Molecule_8060_b3lyp.xyz
O     -0.08370837     1.35746975     0.12457999
C      0.06023612    -0.01385526     0.05501228
C      0.55111482    -0.92731952    -1.09448972
N      0.08168393    -1.93044807    -0.02614666
C      0.79789553    -1.01090611     0.98391824
C     -1.13454404    -1.00493853     0.12973905
C     -1.99252359    -1.09809293     1.36247400
O     -1.76732059    -1.76566471     2.34014524
H      0.78944612     1.76534255     0.10204650
H     -0.03123655    -0.96031971    -2.01845781
H      1.62584068    -0.98327984    -1.28452837
H      1.88652914    -1.06071796     0.90074314
H      0.45764104    -1.14194082     2.00829279
H     -1.78510259    -1.00549397    -0.75312782
H     -2.90794369    -0.46613745     1.29687416
