      18
Molecule_8428_b3lyp.xyz
C      0.18553066     1.49130084     0.01848242
C     -0.00403623    -0.01473586     0.00348784
C     -1.47185505    -0.44159504    -0.04308516
O      0.70492330    -0.55661896    -1.12155481
C      1.22491865    -1.79781893    -0.71776800
C      2.51765499    -1.74936052     0.06799450
C      1.18025763    -1.80724900     0.77436096
O      0.63656306    -0.57104946     1.16196519
H      1.25077016     1.72739734     0.05345190
H     -0.24851552     1.93375783    -0.88165572
H     -0.30452407     1.92347238     0.89454657
H     -1.95241359    -0.05275426    -0.94495254
H     -1.54595789    -1.53245608    -0.05282570
H     -2.00517898    -0.06504039     0.83399125
H      0.96802507    -2.63890591    -1.35242743
H      3.13105568    -2.64501797     0.08069698
H      3.05228727    -0.80684124     0.08994290
H      0.88618898    -2.65618107     1.38185823
