      18
Molecule_8285_b3lyp.xyz
C     -0.03502087     1.50132913     0.08189679
N      0.00856114     0.06018146     0.19239409
C     -1.22391890    -0.65405277     0.58233852
C     -0.34534551    -1.63405491     1.38316547
C      0.74499653    -0.53861073     1.32304874
O     -0.84586633    -1.97344600     2.65901654
C     -0.55625673    -3.19562309     3.14896671
N     -0.90570410    -3.50550572     4.32054812
H      0.96859584     1.88732926    -0.12557192
H     -0.68345210     1.78952081    -0.75225060
H     -0.41154618     1.99586348     0.99729904
H     -1.86980973    -0.08228306     1.26812958
H     -1.82487715    -1.04211734    -0.24614688
H     -0.08009199    -2.53347393     0.81879702
H      1.77799458    -0.83126133     1.10751679
H      0.71877160     0.06933163     2.24201433
H     -0.02275006    -3.83675411     2.43287320
H     -0.62805522    -4.46354892     4.52265439
