      13
Molecule_8832_b3lyp.xyz
C      0.01801990     1.36449726    -0.02340191
O      0.09780832    -0.07449520     0.02777471
C      0.64781904    -0.58545158     1.11924280
O      1.10989328     0.03148301     2.04561453
C      0.65005569    -2.12728122     1.10329058
O      1.42707201    -2.61209768     2.15517548
C     -0.74705445    -2.61345587     1.16763332
N     -1.83469359    -2.99790050     1.22353753
H      1.01886439     1.79859981     0.02352536
H     -0.46041804     1.59544919    -0.97360149
H     -0.57872656     1.73710567     0.81157686
H      1.07146840    -2.45927580     0.14572053
H      1.53073589    -1.86880649     2.77089726
