      17
Molecule_16314_b3lyp.xyz
C      0.09697920     1.52248538    -0.21733622
C     -0.11085421     0.02768928     0.06814562
C      0.67428775    -0.42042278     1.26709544
C      2.07902506    -0.93355265     1.22233271
N      1.03998367    -1.87402753     1.62739146
C      0.80988750    -1.57529112     3.08642214
C      0.32022133    -0.16403181     2.70335534
O     -0.32601919     0.68137822     3.25499793
H      1.14740773     1.74203070    -0.43439175
H     -0.49968025     1.83816022    -1.07780197
H     -0.20276956     2.12348067     0.64565610
H     -1.17493219    -0.16989883     0.24316731
H      0.18590677    -0.57596224    -0.79684281
H      2.47914025    -1.11981619     0.22938370
H      2.81512217    -0.60533003     1.95391589
H     -0.00328567    -2.18280390     3.49224748
H      1.69868871    -1.67885160     3.71538968
