      18
Molecule_1471_b3lyp.xyz
C     -0.08886845     1.54783720     0.08717931
C      0.00793358     0.02331065    -0.02266699
C      0.77726208    -0.47829472    -1.25812031
C      2.25047891    -0.05291003    -1.26040830
C      0.64521920    -2.01962296    -1.34250220
C      1.22458471    -2.58452541    -2.55923865
N      1.68381207    -3.01334837    -3.52943170
H      0.89262937     2.01220105     0.21917044
H     -0.54527636     1.98054161    -0.81001330
H     -0.70535051     1.83512221     0.94421289
H      0.48242428    -0.38159965     0.88217724
H     -1.00665641    -0.39524236    -0.04706547
H      0.29479635    -0.06190981    -2.15252309
H      2.77537705    -0.45560767    -2.13140617
H      2.35058206     1.03492827    -1.28739613
H      2.76299367    -0.41483494    -0.36065442
H      1.13478820    -2.48425243    -0.47730752
H     -0.41067339    -2.31024371    -1.29980406
