      13
Molecule_2162_b3lyp.xyz
C      0.02142204     1.51194044    -0.05504506
C     -0.03788023    -0.01443011     0.00568427
O      0.62424596    -0.64966692    -1.08254158
C      1.86126783    -1.12555456    -0.61168414
O      1.76413212    -1.25497796     0.80365423
C      0.67537373    -0.56505495     1.23865479
O      0.38658840    -0.43643991     2.38997930
H      1.05604942     1.86816196    -0.06345143
H     -0.47656687     1.86908529    -0.95947242
H     -0.48196091     1.93280777     0.81963200
H     -1.07919068    -0.35247235     0.01417003
H      2.06233123    -2.10851458    -1.04739778
H      2.68375496    -0.43180684    -0.84163353
