      13
Molecule_8746_b3lyp.xyz
N      0.36792069     1.54978065    -0.07787515
C      0.18619695     0.09392803    -0.05716866
C      0.88538077    -0.51100043    -1.19605091
N      1.40798518    -0.98878001    -2.10799699
C      0.81153007    -0.42524950     1.27792629
O      2.12058158     0.03410364     1.42101641
C     -0.06288835     0.01942787     2.39179329
N     -0.75756253     0.39904184     3.23345264
H      0.31654633     1.91416988    -1.02203078
H     -0.36021419     1.99538873     0.47224287
H     -0.86405877    -0.22942827    -0.10370575
H      0.83370266    -1.51921215     1.27279015
H      2.10431570     0.95868681     1.12124658
