      16
Molecule_19261_b3lyp.xyz
C     -0.06578554     1.35596369    -0.06993788
N      0.14801124    -0.08272463    -0.06212012
C      0.64210494    -0.61243866     0.95711670
C      1.20519998    -0.19065280     2.32613981
O      0.32406453     0.54315158     3.14258592
C      1.40320244    -1.69142677     2.56391828
C      0.15919902    -2.43592917     2.31784346
N      0.96068179    -2.01986552     1.13176238
H      0.50180907     1.79364640    -0.89886905
H     -1.12383426     1.55341318    -0.27372223
H      0.20789196     1.86202350     0.86398927
H      2.17094943     0.32039161     2.20428148
H      0.78395171     0.78336520     3.95406075
H      2.29595925    -2.14923356     2.97397357
H      0.17283993    -3.50974353     2.47103159
H     -0.79891810    -1.95424743     2.49129923
