      18
Molecule_8925_b3lyp.xyz
C      0.08170805     1.35450196     0.16493107
O      0.05483802    -0.04991050     0.05402801
C      0.64136105    -0.57803559    -1.12961551
C      2.16015886    -0.69309831    -1.00668877
C     -0.02368799    -1.96292100    -1.30897190
O      0.13339880    -2.73978711    -0.13267608
C     -1.43388564    -1.82471318    -1.69685117
C     -2.58701332    -1.71059890    -2.01577163
H      1.10564459     1.75213398     0.21371024
H     -0.43880862     1.83476995    -0.67696120
H     -0.43483142     1.61337230     1.09239963
H      0.37280649     0.05232014    -1.99045537
H      2.61094443     0.27524738    -0.77296109
H      2.41531010    -1.40265918    -0.21603452
H      2.59538909    -1.04499736    -1.94761567
H      0.50978218    -2.50541838    -2.09833656
H     -0.20574603    -2.18966981     0.58582393
H     -3.60717634    -1.61880787    -2.29612630
