      11
Molecule_2738_b3lyp.xyz
O     -0.07455491    -0.00642075    -0.24413496
C     -0.03649711     1.16412278    -0.05071929
C     -1.02703079     2.27780727     0.29324918
O      0.04820665     3.23790156     0.28444492
C      1.07357514     2.26276514    -0.04569237
C      2.12448670     2.13129423     0.93944371
C      2.98795408     1.99547275     1.76410204
H     -1.78916784     2.47513605    -0.47091508
H     -1.50824021     2.18328159     1.27481528
H      1.48805285     2.44602834    -1.04680734
H      3.75546961     1.88159496     2.48979303
