      16
Molecule_15932_b3lyp.xyz
O     -0.75142089     1.16678635     0.70814058
C      0.18154813     0.90082304    -0.00857176
C      1.41593317     1.74531905    -0.11971534
C      1.81481008     2.67685949     1.04679302
C      2.00370208     3.85829858     0.04636469
C      1.55523734     2.94922518    -1.12701200
C      2.66805388     2.09030778    -1.74908662
O      2.51633691     1.05848012    -0.74340653
H      0.18662118     0.00743034    -0.67180254
H      0.98481227     2.82107908     1.74135738
H      2.69980755     2.34219009     1.59071352
H      1.33010807     4.69720355     0.23071610
H      3.02077784     4.24786060    -0.04812900
H      0.75101118     3.29426756    -1.77491405
H      2.44601531     1.70046202    -2.75004452
H      3.67467173     2.52644896    -1.74886851
