      20
Molecule_16558_b3lyp.xyz
C     -0.01692483     1.55281074     0.00326837
C      1.47365181     2.00951133    -0.06472018
C      2.27335418     0.69518290     0.13123512
C      1.38490100    -0.31891394    -0.61275709
C      0.01608617    -0.00307608     0.02181068
C     -0.00876672    -0.56154010     1.45972694
C      1.26977017    -0.25052402     2.19924703
C      2.31420493     0.32273860     1.60022009
H     -0.52607518     1.94950665     0.88645043
H     -0.56955080     1.91496980    -0.86872130
H      1.70265659     2.44436070    -1.04406404
H      1.71722604     2.76110876     0.69062842
H      3.28574864     0.76506415    -0.27616394
H      1.37662460    -0.11161659    -1.68911025
H      1.70154056    -1.35582179    -0.46531676
H     -0.81924004    -0.42588334    -0.54389987
H     -0.86678167    -0.14507290     2.00612814
H     -0.17309453    -1.64961931     1.44410932
H      1.31432123    -0.51350252     3.25365409
H      3.21295721     0.55958429     2.16405141
