      13
Molecule_10680_b3lyp.xyz
N      0.18880261     1.07031815    -0.62751402
C      0.02315593     0.03459483     0.22472153
O      0.80078388    -0.27707102     1.10350763
C     -1.25189851    -0.78246520     0.00323975
C     -1.16532735    -2.22879116     0.35300682
O     -1.82410769    -1.32532084     1.20428400
C     -2.31304116    -0.42180361    -0.98718870
O     -2.22096226     0.41089732    -1.85868336
H      1.02848607     1.61998854    -0.54556042
H     -0.48856074     1.25163829    -1.35546105
H     -1.79826156    -2.94817654    -0.16585882
H     -0.19224024    -2.57128413     0.69694612
H     -3.24385153    -1.00704814    -0.83826849
