      17
Molecule_16404_b3lyp.xyz
O     -0.02870225     0.07468277    -0.48507950
C      0.00282111     1.20578913    -0.06487780
C     -1.26956434     1.91274113     0.43800199
N     -1.11267333     3.34368756     0.76156068
C      0.26818172     3.81652500     0.69513738
C      0.98719215     3.41588537    -0.63048789
C      1.25855643     2.03722180     0.05729880
C      1.19750261     2.80775414     1.41434578
H     -2.05436214     1.75665230    -0.30816234
H     -1.59054649     1.35349769     1.32876866
H     -1.67874257     3.89679012     0.12866094
H      0.29721919     4.86435025     1.00210050
H      0.40305510     3.42962053    -1.55552631
H      1.92170500     3.96297554    -0.78238085
H      2.14146043     1.45726724    -0.21120737
H      2.16600961     3.25258252     1.65151277
H      0.80527573     2.29263940     2.29471194
