      22
Molecule_7161_b3lyp.xyz
C      0.08208755     1.62281630     0.02527359
C     -0.04128291     0.09646635    -0.00887478
C      0.64653767    -0.52536779    -1.23026668
C      0.64864857    -2.06383254    -1.26331305
C     -0.76151670    -2.65898033    -1.35557745
C      1.53438330    -2.55405180    -2.43756697
C      1.74112208    -3.99709921    -2.46090006
C      1.90886497    -5.18784846    -2.45664657
H      1.13198084     1.93521612     0.05356710
H     -0.37244829     2.07668314    -0.86252918
H     -0.41472726     2.04403091     0.90481277
H      0.39607487    -0.32694018     0.90524410
H     -1.10217164    -0.17887413     0.00516600
H      0.17108789    -0.14659005    -2.14722044
H      1.68637499    -0.17101193    -1.26175829
H      1.11509156    -2.42443734    -0.33632622
H     -0.71808234    -3.74926281    -1.42605002
H     -1.36545698    -2.40301694    -0.48100236
H     -1.28440474    -2.28480404    -2.24466794
H      1.08089473    -2.23481758    -3.38643937
H      2.51026489    -2.05429564    -2.38518745
H      2.06232775    -6.23830381    -2.46382877
