      18
Molecule_13947_b3lyp.xyz
C     -0.07385206    -1.19384324     0.26845648
C     -0.06672718    -0.00564221     0.08719239
C     -0.02356161     1.43753078    -0.14312097
C      1.38381369     1.98970821    -0.12717491
C      2.08243794     2.40643763     1.13543896
C      1.87472348     3.43054024     0.04938466
C      2.91726909     3.23194269    -1.05702754
C      2.42253537     1.75783281    -1.23470456
H     -0.08939450    -2.24256307     0.43258266
H     -0.49970822     1.66136334    -1.10787502
H     -0.62589676     1.94811126     0.61965533
H      1.44124763     2.51472308     2.00510353
H      3.08177887     2.04111141     1.36430583
H      1.29988579     4.33303480     0.22361870
H      2.72817614     3.84043996    -1.94407782
H      3.96144878     3.36974522    -0.75721853
H      3.14806581     0.95955311    -1.05063141
H      1.96688599     1.59216494    -2.21444220
