      21
Molecule_8360_b3lyp.xyz
C     -0.01356156     1.57790863     0.00306602
C     -0.00103154     0.04744225    -0.01967390
C     -1.40777956    -0.56539889     0.02224618
C     -1.40908273    -2.07643394     0.00006517
C     -0.77727070    -3.08282864     0.99865799
N     -1.42180705    -4.02884202    -0.02820290
C     -2.60929849    -3.05304340     0.03146282
C     -0.85633674    -3.05230258    -1.07292400
H      1.00126702     1.98659373    -0.02753395
H     -0.56176399     1.98178847    -0.85541604
H     -0.49817060     1.95606590     0.91014420
H      0.51843802    -0.30229159    -0.92104118
H      0.58172203    -0.32781674     0.83132202
H     -1.93124115    -0.22116366     0.92518381
H     -1.99476950    -0.19540484    -0.83001920
H      0.31300029    -3.16299395     1.03764048
H     -1.21601360    -3.16118036     1.99818611
H     -3.18945156    -3.12825209     0.95631232
H     -3.25827232    -3.10172073    -0.84833760
H     -1.37009096    -3.10166962    -2.03796684
H      0.22769474    -3.13008087    -1.19725173
