   19
bigqm7wdef2tzvp_002444.xyz
  C     0.95921900    -0.80400300    -1.26454900
  C     0.56026300    -0.02563500    -0.00258300
  C     0.96430900    -0.81927400     1.24997700
  C     1.30699900     1.30762300     0.00982400
  C    -0.96015100     0.19702200     0.00062900
  N    -1.71415200    -0.95170800    -0.06260200
  N    -1.57117800     1.31302200     0.01499000
  H     2.04173000    -0.94815100    -1.28559600
  H     0.66900900    -0.25813100    -2.16384500
  H     0.48695900    -1.78571200    -1.30490200
  H     2.05098300    -0.91696100     1.29131800
  H     0.55224200    -1.83023100     1.25593400
  H     0.63307700    -0.31269900     2.15832700
  H     2.38251000     1.12307300     0.00458100
  H     1.07609500     1.89197600     0.90270300
  H     1.07164400     1.90827300    -0.87076900
  H    -1.32715000    -1.81083100     0.27988100
  H    -2.69664600    -0.81702800     0.10480100
  H    -0.92697700     2.09282700     0.00106100
