   12
bigqm7wdef2tzvp_000790.xyz
  C    -1.79160100    -0.68684700    -0.31644000
  C    -0.65495300     0.32178000    -0.39137200
  O    -0.74921200     1.31534900     0.59697300
  C     0.69609900    -0.37735700    -0.33526200
  F     1.70678200     0.49807200    -0.53391200
  F     0.87764900    -0.92405100     0.90436100
  H    -2.74381700    -0.16242500    -0.38015400
  H    -1.75978000    -1.23654900     0.62638000
  H    -1.73741600    -1.40780600    -1.13468500
  H    -0.69077000     0.84859500    -1.34775000
  H    -0.61972400     0.90547800     1.45597500
  H     0.78805200    -1.18171700    -1.07114300
