   15
bigqm7wdef2tzvp_003260.xyz
  C    -2.66896600    -0.72443500     0.06730100
  C    -1.45219900     0.13138200    -0.03345000
  C    -1.44403100     1.45650700    -0.12735100
  O    -0.32470600    -0.64419800    -0.04211800
  C     0.85882200    -0.05571200     0.26547300
  N     1.89198400    -0.39678300    -0.35976600
  N     3.08647900     0.18349300     0.01289900
  H    -3.57172700    -0.11843600     0.03370900
  H    -2.65516200    -1.29732300     0.99651800
  H    -2.68986100    -1.43840400    -0.75822800
  H    -2.37879200     1.99638000    -0.10695700
  H    -0.53477600     2.02620200    -0.25683400
  H     0.82164100     0.66028500     1.09118900
  H     3.84086500    -0.42136000    -0.26903400
  H     3.15445400     0.39282100     1.00280900
