   20
bigqm7wdef2tzvp_002691.xyz
  C    -0.62066300     1.66903700    -0.44243400
  C     0.01702000     0.35745100     0.02627400
  N     0.04274600     0.23922700     1.48466200
  C    -0.77223000    -0.84132600    -0.51738500
  N    -2.13222600    -0.87161900     0.01153900
  C     1.46292700     0.29842400    -0.48294300
  N     2.10957500    -0.94003400    -0.08463400
  H    -1.63415500     1.76580500    -0.04881500
  H    -0.66251300     1.72861900    -1.53341700
  H    -0.04397800     2.52497400    -0.08264900
  H    -0.88838600    -0.00927200     1.80017900
  H     0.29036900     1.12322000     1.91078000
  H    -0.25921000    -1.74858500    -0.20237900
  H    -0.73236200    -0.81195000    -1.61417000
  H    -2.51741900    -1.80286900    -0.03615700
  H    -2.74871600    -0.26267200    -0.50765400
  H     1.97677700     1.19962800    -0.11131600
  H     1.45899500     0.36458600    -1.57537400
  H     2.00145100    -1.04558500     0.91753500
  H     3.09615400    -0.92043300    -0.29860100
