   11
bigqm7wdef2tzvp_010951.xyz
  C     3.01920200     0.54070300     0.12408900
  C     1.89209900     0.24952800    -0.15263800
  C     0.53541600    -0.08363000    -0.50773100
  O     0.00000600    -1.29299400     0.00002200
  C    -0.53541200    -0.08360900     0.50770900
  C    -1.89210000     0.24953100     0.15262400
  C    -3.01921100     0.54069500    -0.12408100
  H     4.02210300     0.79347500     0.37333000
  H     0.25168400     0.13881800    -1.53193300
  H    -0.25167200     0.13889500     1.53189900
  H    -4.02211900     0.79345700    -0.37330600
