   12
bigqm7wdef2tzvp_000312.xyz
  C    -2.32029400     0.12586800     0.02286600
  N    -1.01401700    -0.49751800    -0.07916800
  C     0.08388100     0.43291600     0.05420100
  C     1.40069700    -0.29170300     0.20558800
  O     2.45462700     0.14110600    -0.16654200
  H    -3.09539700    -0.62449600    -0.13341300
  H    -2.47959900     0.94440700    -0.69461800
  H    -2.44958400     0.53265300     1.02818700
  H    -0.93981300    -0.99516600    -0.95587100
  H    -0.05665600     0.99579600     0.98597400
  H     0.17416200     1.17326000    -0.75338400
  H     1.32228900    -1.27515900     0.71370500
