   17
bigqm7wdef2tzvp_000878.xyz
  C     0.94020400     1.39790000     0.12778800
  C     0.39393600    -0.01978100     0.00933800
  C     1.51713200    -1.03358800    -0.09297700
  C    -0.71712000    -0.31560300     1.04692600
  C    -1.71998300    -0.02889700    -0.08226200
  N    -0.62672900    -0.16601100    -1.06060600
  H     1.58520900     1.49580000     1.00389500
  H     0.13139600     2.12647100     0.22019600
  H     1.53222900     1.65340700    -0.75519500
  H     2.14945500    -1.00490900     0.79811200
  H     2.14569800    -0.82497100    -0.96240200
  H     1.10928400    -2.03849000    -0.20361600
  H    -0.75185700     0.33248700     1.92120700
  H    -0.72398800    -1.35719800     1.36564900
  H    -2.14679900     0.97791900    -0.01818100
  H    -2.53343400    -0.74340900    -0.21837000
  H    -0.59510300     0.54478500    -1.77993100
