   16
bigqm7wdef2tzvp_012825.xyz
  C     0.93382400     1.07355700     0.28311600
  N     1.83837200     0.35473600    -0.63044200
  C     1.48230600    -0.94459300    -0.03671200
  C     0.32728000    -0.27054800     0.74096800
  C    -1.05752100    -0.60487400     0.26876700
  C    -2.14124600     0.37074200     0.22477100
  O    -1.49847800    -0.06112500    -0.96252400
  H     0.25690200     1.75773800    -0.23253900
  H     1.43124000     1.61011400     1.09688600
  H     2.81240500     0.60785800    -0.55907900
  H     2.24471000    -1.37624500     0.61944500
  H     1.18656000    -1.69587700    -0.77354200
  H     0.36483100    -0.43785700     1.81818400
  H    -1.33316500    -1.65018000     0.40459200
  H    -1.94233100     1.40082100     0.50908500
  H    -3.16979000     0.04377600     0.34479000
