   20
bigqm7wdef2tzvp_008709.xyz
  C     3.14145400    -0.03556100    -0.26496900
  C     1.80103300     0.37551900     0.31531700
  N     0.73874100    -0.50261300    -0.14244500
  C    -0.55384400    -0.17495000     0.40765100
  C    -1.26591700     1.07091700    -0.15949600
  C    -2.58654200     0.27130500    -0.12944000
  C    -1.74861400    -1.02404400    -0.06070000
  H     3.93035400     0.64422600     0.05996700
  H     3.10317600    -0.03129600    -1.35496200
  H     3.41572300    -1.04259100     0.06003300
  H     1.55580900     1.39094000    -0.00946000
  H     1.86653900     0.40877300     1.41620400
  H     0.96916000    -1.46315900     0.08277500
  H    -0.54007200    -0.11819900     1.50884900
  H    -0.93119500     1.25417600    -1.18177800
  H    -1.21380800     1.99719300     0.41182800
  H    -3.26403100     0.38720700    -0.97380100
  H    -3.14394300     0.44273900     0.79186000
  H    -1.55216300    -1.42438000    -1.05648100
  H    -2.09215400    -1.82645000     0.59189700
