   16
bigqm7wdef2tzvp_010275.xyz
  C    -3.15171000     0.14158900     0.60902800
  C    -2.13930400     0.31277700    -0.51347700
  N    -0.98867900    -0.53898800    -0.30453500
  C     0.14031000     0.00686000    -0.19347300
  N     1.27639000    -0.74373800     0.01454300
  C     2.56947900    -0.27747300     0.15710300
  N     3.02038500     0.90358500     0.13573900
  H    -4.04321400     0.74020700     0.41494600
  H    -2.72676100     0.45647900     1.56367300
  H    -3.44739300    -0.90423900     0.69800200
  H    -1.85541600     1.37215500    -0.60272900
  H    -2.60151500     0.02255500    -1.46099200
  H     0.30208900     1.08669400    -0.25415300
  H     1.12474600    -1.73758600     0.06638800
  H     3.27387400    -1.09460100     0.30932000
  H     2.30427000     1.60980400    -0.00977500
