   18
bigqm7wdef2tzvp_006419.xyz
  C    -2.32346400    -0.75661300    -0.22465300
  C    -1.50683300     0.52436800    -0.32054300
  C    -0.07019600     0.41404800     0.11661100
  F     0.54814700     1.64005400    -0.02739600
  C     0.40218000    -0.38296000     1.28411300
  C     0.80578500    -0.76976000    -0.12704000
  C     2.23007800    -0.60397100    -0.58635500
  H    -3.34933700    -0.56876800    -0.54197900
  H    -2.36120800    -1.13716100     0.79735200
  H    -1.92188300    -1.54308600    -0.86537000
  H    -1.97425900     1.30415000     0.28699000
  H    -1.50971100     0.88645400    -1.35230300
  H    -0.30179400    -1.00400300     1.82147300
  H     1.16545800     0.08057000     1.89595300
  H     0.30085800    -1.64044400    -0.52947600
  H     2.67713500     0.29634600    -0.16597000
  H     2.28257900    -0.52521500    -1.67384800
  H     2.83353900    -1.45999900    -0.27904400
