   12
bigqm7wdef2tzvp_010385.xyz
  C     3.09632700    -0.39294400     0.00000200
  N     1.83139900    -0.45650000    -0.00000100
  N     1.13751200     0.69805600     0.00000200
  C    -0.22588900     0.69869200    -0.00000300
  C    -1.01655700    -0.38376000    -0.00000500
  C    -2.42711300    -0.23731600    -0.00000100
  N    -3.57330300    -0.13035900     0.00000500
  H     3.64590800    -1.32440200     0.00000100
  H     3.65081600     0.54893900     0.00000900
  H     1.63252500     1.57846300    -0.00000800
  H    -0.65333000     1.69354100    -0.00000100
  H    -0.60578500    -1.38294600    -0.00000500
