   15
bigqm7wdef2tzvp_010117.xyz
  C    -3.21267100    -0.29544500    -0.00533500
  N    -1.77394400    -0.38922300    -0.01245000
  C    -1.11322800     0.68864800     0.00514000
  N     0.24792100     0.71737900    -0.05519500
  C     0.99641900    -0.51895900     0.03807100
  C     2.43111900    -0.26172400    -0.00010900
  C     3.60745100    -0.04299400    -0.02045800
  H    -3.61517100    -0.84959100     0.84581900
  H    -3.61980400    -0.75650000    -0.90861700
  H    -3.58610800     0.73776900     0.04918200
  H    -1.57268600     1.68425500     0.04365000
  H     0.71550400     1.56129800     0.21935300
  H     0.71051700    -1.17027100    -0.79125900
  H     0.74090400    -1.06406100     0.95417000
  H     4.65446700     0.14285000    -0.04263900
