   11
bigqm7wdef2tzvp_007005.xyz
  N    -2.43980800    -0.36915300    -0.08045300
  C    -1.08318100    -0.09628700    -0.01020700
  C    -0.01105500    -0.96929300    -0.01881700
  N     1.03255400    -0.12256200    -0.00080700
  O     2.33896200    -0.48749200     0.01068000
  N     0.69557700     1.13256800     0.00930200
  N    -0.61936700     1.16602600     0.00867900
  H    -2.74159800    -1.13691400     0.49642200
  H    -2.99085400     0.45839500     0.08838200
  H     0.09961400    -2.03669700    -0.04846600
  H     2.80386500     0.36047800    -0.00468500
