   16
bigqm7wdef2tzvp_009263.xyz
  C    -0.68568700     2.17539700     0.04351600
  O    -0.18602300     0.98256000    -0.50783400
  C     0.08635600    -0.03266700     0.43923400
  C    -1.16124300    -0.88325500     0.65513300
  O    -1.61417800    -1.45387600    -0.54903300
  C     1.24224000    -0.85282100    -0.08733400
  F     2.40699500    -0.10901700    -0.04940600
  H    -0.86573100     2.86069100    -0.78302300
  H     0.04188700     2.62608700     0.72798900
  H    -1.62789700     2.02044300     0.58273800
  H     0.38992600     0.41322100     1.39585700
  H    -1.94214800    -0.26531400     1.11687300
  H    -0.94567800    -1.70423400     1.34139500
  H    -1.65214000    -0.74408300    -1.19661100
  H     1.06181800    -1.15336200    -1.12020200
  H     1.38861800    -1.74169100     0.53127300
