   14
bigqm7wdef2tzvp_012504.xyz
  C     0.50763300     1.47046800    -0.13924300
  N     1.61049000     0.48742300    -0.02814900
  C     1.37526200    -0.75449200     0.08974700
  N     0.11738300    -1.41370800     0.10446600
  N    -0.76352200    -0.47552600    -0.48771200
  C    -1.99397800     0.08037900     0.04967200
  C    -0.67182600     0.69161800     0.37022600
  H     0.40269300     1.79307600    -1.17468800
  H     0.77340700     2.33353100     0.47335000
  H     2.21297700    -1.43611300     0.22113800
  H     0.14737200    -2.27376100    -0.42954500
  H    -2.49060700    -0.37390700     0.90337000
  H    -2.64766400     0.42946600    -0.73995200
  H    -0.45117700     0.41255000     1.40368300
