   17
bigqm7wdef2tzvp_011304.xyz
  C     2.61626400     0.30542100    -0.04305500
  C     1.42020500    -0.57884000    -0.36886100
  C     0.16734700    -0.24201100     0.45160700
  C    -0.99450600    -1.15189900     0.17802800
  C    -2.06218400    -0.43029000    -0.18035600
  C    -1.70162200     0.98972700    -0.17425600
  C    -0.41883400     1.11523700     0.18495000
  H     3.49134900     0.00484900    -0.62117600
  H     2.87690300     0.23935400     1.01594500
  H     2.41319200     1.35284900    -0.27228100
  H     1.68094700    -1.62476300    -0.18621800
  H     1.17143900    -0.49831600    -1.43034000
  H     0.43081300    -0.31011100     1.51742800
  H    -0.93928000    -2.22819300     0.26077900
  H    -3.03908600    -0.81642800    -0.43605900
  H    -2.37704300     1.79696500    -0.42164400
  H     0.13074800     2.03972500     0.28522300
