   19
bigqm7wdef2tzvp_010621.xyz
  C     0.86017400     1.94661300     0.13136700
  C     0.74245500     0.52550900    -0.37248100
  C     1.90426300    -0.46253900    -0.12459200
  C     0.86169700    -1.56757900     0.14666000
  C    -0.19120300    -0.46006600     0.36816300
  C    -1.58799400    -0.67936900    -0.16249900
  O    -2.39491200     0.48168000    -0.09168100
  H     1.64201500     2.49249800    -0.40179400
  H     1.11169500     1.95900100     1.19553400
  H    -0.08037400     2.48430200    -0.00290000
  H     0.47898200     0.52701800    -1.43453700
  H     2.45465000    -0.20107600     0.78180700
  H     2.61753600    -0.62329500    -0.93248400
  H     1.05203300    -2.25937800     0.96613700
  H     0.64239900    -2.14436900    -0.75452400
  H    -0.23712300    -0.19433900     1.43156100
  H    -2.06282400    -1.52055100     0.36137200
  H    -1.54130000    -0.94132500    -1.22229700
  H    -2.45474000     0.75265700     0.82586300
