   17
bigqm7wdef2tzvp_006646.xyz
  C    -2.43516900    -0.45677100     0.36125500
  C    -1.18468200    -0.05228100    -0.40309200
  C     0.02699500    -0.96475500    -0.20594800
  N     1.14984400    -0.03836600    -0.33637400
  C     2.38804500    -0.43610400     0.28627200
  N     0.71754700     1.21707800     0.05508100
  C    -0.55330600     1.24971400     0.02035000
  H    -2.80271200    -1.42765300     0.02422000
  H    -3.23572400     0.27038100     0.21473400
  H    -2.23001900    -0.52393900     1.43155700
  H    -1.42366300     0.01705000    -1.47211300
  H     0.09788500    -1.77353600    -0.93227100
  H     0.00733000    -1.40078100     0.80793200
  H     2.75129800    -1.34645700    -0.19238400
  H     2.27109700    -0.62834900     1.36367700
  H     3.12511600     0.35242300     0.14769000
  H    -1.08363800     2.17106200     0.22298800
