   16
bigqm7wdef2tzvp_006889.xyz
  C    -2.46681500    -0.42420700     0.19942500
  C    -1.03110700    -0.14723600    -0.04908200
  C    -0.05930900    -0.92561100    -0.51654500
  C     1.24596400    -0.18131400    -0.45721300
  N     2.12241700    -0.76084200     0.55311100
  C     0.71693400     1.24869700    -0.20064800
  O    -0.63024100     1.11628800     0.26711700
  H    -2.70543600    -1.45570000    -0.05215800
  H    -3.09220500     0.24313000    -0.39658300
  H    -2.70719200    -0.24940100     1.25003400
  H    -0.15828300    -1.96251300    -0.79276600
  H     1.78946200    -0.20988300    -1.40423900
  H     1.65923200    -0.78116600     1.45281200
  H     2.97837200    -0.22983200     0.64880200
  H     0.69430200     1.83371000    -1.12433200
  H     1.29276200     1.78527100     0.55409100
