   20
bigqm7wdef2tzvp_005447.xyz
  C    -2.28751800    -0.80458000     0.27080000
  O    -0.94032500    -0.50589800     0.51348200
  C    -0.31749800     0.27938300    -0.48965700
  C    -0.72672300     1.74193800    -0.39415500
  C     1.18980900     0.05504600    -0.36105400
  C     1.75380800     0.53912800     0.97492200
  N     1.45100900    -1.35384600    -0.63610800
  H    -2.61399800    -1.48890200     1.05308400
  H    -2.41811800    -1.29134000    -0.70424700
  H    -2.92371100     0.08776600     0.30328900
  H    -0.60770700    -0.11663000    -1.47237200
  H    -0.55537500     2.12683600     0.61174100
  H    -1.78298500     1.87192100    -0.63206500
  H    -0.15317300     2.34379400    -1.10156400
  H     1.65465800     0.63318600    -1.16631900
  H     1.25925600     0.03067600     1.80407800
  H     1.62904300     1.61570700     1.10698700
  H     2.82283600     0.32292600     1.02697800
  H     0.94823100    -1.91743300     0.03899400
  H     2.43531900    -1.55990000    -0.52881700
