   16
bigqm7wdef2tzvp_005954.xyz
  N     2.15497600    -0.63391800    -0.32050100
  C     1.44682200     0.23598000     0.61511500
  C     0.09237500     0.62035700     0.07263800
  C    -0.15025000     1.85991600    -0.34052100
  C    -0.95209200    -0.45102600    -0.00113900
  N    -2.25650900    -0.00415000     0.08471100
  N    -0.71824000    -1.68909100    -0.17048400
  H     3.03382900    -0.94620600     0.06774500
  H     2.34767000    -0.14536700    -1.18461200
  H     1.99439900     1.15515400     0.85898600
  H     1.31376700    -0.32162600     1.54571300
  H     0.61529600     2.62542000    -0.28487700
  H    -1.10533600     2.14357800    -0.76383700
  H    -2.43139400     0.77903000     0.68992800
  H    -2.92795000    -0.75168600     0.15380900
  H     0.27700400    -1.83955300    -0.31549300
