   15
bigqm7wdef2tzvp_002550.xyz
  C     1.65254000     1.20047100     0.50701900
  C     1.27422200    -0.19395900     0.10665300
  C     2.08412700    -0.99123600    -0.57599800
  C    -0.08262600    -0.66958200     0.54685200
  C    -1.23940700     0.04166900    -0.11571100
  O    -2.41501500    -0.40526600     0.36349700
  O    -1.17167100     0.88717700    -0.96267700
  H     2.66256300     1.44611100     0.18144800
  H     1.60334900     1.31510100     1.59395800
  H     0.96049700     1.92260600     0.06982200
  H     3.06854200    -0.66234300    -0.88588500
  H     1.79166800    -1.99692500    -0.85383400
  H    -0.20721400    -0.54236600     1.62714800
  H    -0.20963900    -1.73648000     0.35185100
  H    -3.10942300     0.07483700    -0.10396200
