   19
bigqm7wdef2tzvp_012035.xyz
  C    -3.30074900     0.34934700    -0.03388700
  C    -2.04547700    -0.47791300    -0.27619100
  C    -0.80909300     0.18903400     0.28724500
  O     0.31232700    -0.62682300     0.03086500
  C     1.49587800    -0.08902400     0.50967100
  C     2.73850200    -0.46767400    -0.20901200
  C     2.21067200     0.94366200    -0.31140300
  H    -4.18095700    -0.14459600    -0.44643600
  H    -3.22268400     1.33379900    -0.50100400
  H    -3.47504100     0.50121700     1.03381000
  H    -1.89822500    -0.63779600    -1.34696100
  H    -2.14878500    -1.46565100     0.17904200
  H    -0.92114100     0.34340200     1.37073300
  H    -0.66519200     1.17847400    -0.16919600
  H     1.53771300     0.00988300     1.59273600
  H     2.61533700    -1.10201200    -1.07603200
  H     3.63352300    -0.64836900     0.37024200
  H     1.74700200     1.22357100    -1.24801700
  H     2.74142600     1.73806800     0.19562600
