   18
bigqm7wdef2tzvp_012816.xyz
  C    -2.12075100     0.30554300     0.36890300
  C    -1.43422900    -1.01035600    -0.03186400
  C    -0.34939300    -0.12482700    -0.68167200
  N    -0.85546500     1.01583900     0.10711900
  C     1.09806600    -0.47884900    -0.47317300
  C     2.10871400     0.59567000    -0.20550600
  C     1.71762900    -0.36121200     0.88454100
  H    -2.48386700     0.39483600     1.39424300
  H    -2.93088500     0.57455500    -0.31800400
  H    -1.98533800    -1.68538900    -0.68270900
  H    -1.04491300    -1.55912300     0.82482100
  H    -0.53850900    -0.00723800    -1.75700300
  H    -0.93776500     1.88939800    -0.39316500
  H     1.43401700    -1.30894500    -1.08521800
  H     1.74188400     1.60966500    -0.11154300
  H     3.08987000     0.50356100    -0.65125200
  H     1.09194900     0.03614100     1.67300300
  H     2.43159200    -1.11415200     1.18961700
