   13
bigqm7wdef2tzvp_006715.xyz
  C     0.00000000     2.34703200     0.61998300
  C     0.00000000     1.11717100     0.11736200
  O    -0.00000000     0.00000000     0.91340700
  C    -0.00000000    -1.11717100     0.11736200
  C    -0.00000000    -2.34703200     0.61998300
  C     0.00000000    -0.66713400    -1.26705600
  C     0.00000000     0.66713400    -1.26705600
  H     0.00000000     2.51713300     1.68665100
  H     0.00000000     3.19571700    -0.04718000
  H    -0.00000000    -2.51713300     1.68665100
  H    -0.00000000    -3.19571700    -0.04718000
  H     0.00000000    -1.33368000    -2.11483300
  H     0.00000000     1.33368000    -2.11483300
