   14
bigqm7wdef2tzvp_006813.xyz
  C     2.56307800     0.37688600     0.00000000
  C     1.12676700    -0.01755300     0.00000000
  C     0.60075200    -1.25045600     0.00000000
  C    -0.86580200    -1.19178900     0.00000000
  C    -1.20010700     0.09717000     0.00000000
  F    -2.42784300     0.61225400     0.00000000
  C     0.00000000     0.98212900     0.00000000
  H     3.20716600    -0.50276800     0.00000000
  H     2.81182100     0.97809000     0.87898000
  H     2.81182100     0.97809000    -0.87898000
  H     1.16757400    -2.17187700     0.00000000
  H    -1.54027400    -2.03392800     0.00000000
  H     0.02217500     1.63189200     0.88049300
  H     0.02217500     1.63189200    -0.88049300
