   11
bigqm7wdef2tzvp_008210.xyz
  C     0.49542900     2.01597500     0.00000000
  C    -0.00000000     0.79318300     0.00000000
  O    -1.35220700     0.52270800    -0.00000000
  C    -1.47942600    -0.82605700    -0.00000000
  C    -0.33047900    -1.50948800    -0.00000000
  C     0.74229200    -0.51472700     0.00000000
  O     1.94117900    -0.65028900     0.00000000
  H    -0.13687500     2.89273700     0.00000000
  H     1.57063800     2.12887400     0.00000000
  H    -2.50112400    -1.17531200    -0.00000000
  H    -0.21130900    -2.57896100    -0.00000000
