   16
bigqm7wdef2tzvp_001903.xyz
  C     2.73344400     0.73589900     0.08918200
  C     1.89362000    -0.49591100    -0.24624200
  C     0.52104700    -0.42794100     0.34585100
  C    -0.61557800    -0.46229100    -0.33622400
  C    -1.97263100    -0.37186800     0.28687700
  O    -2.70931600     0.74079900    -0.19142300
  H     3.73917600     0.64878500    -0.32444600
  H     2.82584600     0.86493000     1.16981200
  H     2.27554600     1.63968800    -0.31677900
  H     2.40240900    -1.38727800     0.13500500
  H     1.81986000    -0.61550600    -1.32969000
  H     0.47508600    -0.33636800     1.43076900
  H    -0.59524000    -0.54070200    -1.42091600
  H    -1.88095700    -0.34565000     1.38018900
  H    -2.57202000    -1.24694400     0.02702900
  H    -2.17459700     1.52532700    -0.05625100
