   11
bigqm7wdef2tzvp_000850.xyz
  N     1.42432500     1.08417700     0.15657400
  C     0.74503800    -0.10391300    -0.02416900
  N     1.24152600    -1.24746400    -0.25802600
  C    -0.74081900     0.03240000    -0.00600500
  F    -1.37050000    -1.10947500     0.24939500
  C    -1.43131300     1.13673300    -0.23597700
  H     2.42219400     1.01409500     0.25837500
  H     0.99407500     1.77253700     0.74970000
  H     2.25867600    -1.22863700    -0.24303700
  H    -0.92721400     2.05672400    -0.48870600
  H    -2.51162400     1.12224600    -0.21381400
