   14
bigqm7wdef2tzvp_008136.xyz
  C    -1.95596200    -0.74989400    -0.00000600
  N    -0.55141600    -0.43638700     0.00000000
  C     0.49149000    -1.36923700     0.00000600
  C     1.68305100    -0.77892800     0.00000300
  C     1.46869400     0.70439800    -0.00000900
  C    -0.04954100     0.84572400     0.00000100
  O    -0.70615400     1.85956900     0.00000900
  H    -2.23102500    -1.32101000    -0.88936900
  H    -2.50232900     0.19143500    -0.00001300
  H    -2.23103500    -1.32100000     0.88936000
  H     0.25414000    -2.42269700     0.00001500
  H     2.63723400    -1.27838800     0.00000400
  H     1.87787400     1.20870800    -0.87829900
  H     1.87789000     1.20872400     0.87826300
