   18
bigqm7wdef2tzvp_008776.xyz
  C    -2.87685100    -0.47467400     0.26119600
  C    -1.95159200     0.17593800    -0.42557000
  C    -0.75446500     0.83883100     0.18082800
  N     0.46745400     0.31350600    -0.37847400
  C     1.74194200     0.83758400     0.12735500
  C     2.32903700    -0.57992600     0.02216800
  C     0.86566600    -1.05336600    -0.01324000
  H    -3.72657200    -0.93593600    -0.22632100
  H    -2.81875800    -0.56541300     1.34075700
  H    -2.02238800     0.24165400    -1.50741200
  H    -0.78352600     0.72513400     1.28011400
  H    -0.78315900     1.91241400    -0.03478500
  H     1.67465400     1.17295000     1.17334200
  H     2.18663200     1.63280800    -0.47389700
  H     2.94648800    -0.92718800     0.84680300
  H     2.84411100    -0.74791100    -0.92162000
  H     0.50397600    -1.34268300     0.98487700
  H     0.58394200    -1.82668800    -0.72896500
