   10
bigqm7wdef2tzvp_001562.xyz
  O     0.21060000     1.97135400     0.00000000
  C     0.00000000     0.65047200     0.00000000
  N    -1.14765600     0.04475100    -0.00000000
  C    -0.82948600    -1.29936700    -0.00000000
  C     0.51483300    -1.47570400     0.00000000
  N     1.04838300    -0.19712800     0.00000000
  H     2.01660600     0.06328800     0.00000000
  H    -0.65520100     2.38991300    -0.00000000
  H    -1.59716000    -2.05495400    -0.00000000
  H     1.13379200    -2.35484500     0.00000000
