   13
bigqm7wdef2tzvp_004491.xyz
  N     2.40470700    -0.97618500    -0.00001000
  N     1.03378400    -0.73811000     0.00001200
  C     0.52866100     0.51870600     0.00000400
  O     1.19695300     1.53154300    -0.00000100
  N    -0.85694100     0.59101600     0.00000300
  N    -1.62971000    -0.50750600     0.00000500
  C    -2.88909900    -0.36878300    -0.00000600
  H     2.81398800    -0.53220300     0.81367200
  H     2.81396900    -0.53216200    -0.81368100
  H     0.42311000    -1.53445200    -0.00001600
  H    -1.25064600     1.52280900    -0.00000600
  H    -3.49370100    -1.26547800    -0.00000100
  H    -3.38259000     0.60509900    -0.00001900
