   13
bigqm7wdef2tzvp_007095.xyz
  C     2.46289500    -0.54637600    -0.00000000
  C     1.06000400    -0.05161200    -0.00000000
  C     0.60859400     1.22866900    -0.00000000
  N    -0.77727700     1.13824100    -0.00000000
  H    -1.44208100     1.88839700    -0.00000100
  C    -1.06512200    -0.17606100     0.00000000
  O    -2.34002700    -0.58166200     0.00000000
  N    -0.01007400    -0.93165700     0.00000000
  H     3.16780900     0.28516900    -0.00000100
  H     2.65530800    -1.16267700    -0.88025200
  H     2.65530800    -1.16267700     0.88025200
  H     1.12097300     2.17441200    -0.00000000
  H    -2.32386400    -1.54313100     0.00000100
