   14
bigqm7wdef2tzvp_009076.xyz
  N    -2.40602100    -0.58572500    -0.59362600
  C    -1.24974000     0.22837900    -0.35540700
  C    -0.91107600     0.83155400     0.96700600
  C    -0.11868200    -0.35699200     0.44648200
  C     1.28423000    -0.20924200     0.00946700
  O     1.53970300     0.98779100    -0.55724300
  O     2.13217800    -1.05129000     0.13299600
  H    -3.23057600    -0.00927800    -0.69822800
  H    -2.57384900    -1.22437400     0.17214600
  H    -0.94865900     0.79851700    -1.22501800
  H    -1.56877500     0.62736100     1.80184900
  H    -0.40970800     1.78916200     0.98889800
  H    -0.29932500    -1.31402100     0.91633100
  H     2.46959600     0.97850200    -0.81191300
