   20
bigqm7wdef2tzvp_002480.xyz
  C     2.40931100    -0.94506600     0.30406100
  C     1.25754500     0.05447200     0.24788300
  C     1.60221600     1.22091900    -0.67419200
  C    -0.02928200    -0.65992300    -0.17149600
  C    -1.28126000     0.19453600    -0.17421900
  C    -2.53225500    -0.57731000    -0.52694500
  F    -1.45213300     0.74690000     1.10037200
  H     3.32811000    -0.46707600     0.64900200
  H     2.60505300    -1.36726600    -0.68607500
  H     2.18551400    -1.77180400     0.98143800
  H     1.10192200     0.45134900     1.25485700
  H     1.69976400     0.88160100    -1.70998000
  H     2.55160500     1.67417800    -0.38307300
  H     0.84411800     2.00468800    -0.64442900
  H    -0.20211900    -1.51252900     0.49318400
  H     0.09724900    -1.06854500    -1.18091400
  H    -1.16477100     1.04339100    -0.85431100
  H    -2.67292500    -1.41094400     0.16320900
  H    -2.45421200    -0.97489100    -1.54030000
  H    -3.40775500     0.06997700    -0.47651000
