   19
bigqm7wdef2tzvp_003327.xyz
  C     3.03650200     0.08767900     0.66011400
  C     2.13310300    -0.33648900    -0.49672600
  C     0.75567500     0.23557900    -0.38006400
  N    -0.25463800    -0.53414000    -0.31448100
  N    -1.51982000    -0.04445000    -0.25781900
  C    -2.42504100    -0.97908600     0.37412600
  C    -1.72308000     1.34341700     0.07693800
  H     4.04584300    -0.30669500     0.53335000
  H     2.64436900    -0.27825900     1.61067000
  H     3.10981500     1.17584700     0.72536700
  H     2.05160300    -1.42311400    -0.54257700
  H     2.58007800    -0.00436700    -1.44004400
  H     0.67567100     1.32428600    -0.35769400
  H    -2.20075900    -1.97764300     0.00593400
  H    -3.45336100    -0.72514100     0.11344100
  H    -2.33050900    -0.98128300     1.46980900
  H    -1.32084300     1.99445700    -0.70167700
  H    -1.25063300     1.61531000     1.03422000
  H    -2.79301800     1.53013300     0.14896700
