   15
bigqm7wdef2tzvp_008133.xyz
  C    -1.91069900    -0.85086100     0.00316700
  N    -0.51882900    -0.48990300    -0.00995800
  C     0.56896300    -1.35823600     0.00032300
  C     1.72932000    -0.70664600     0.00500900
  C     1.43477700     0.76797500    -0.00130400
  C    -0.08774500     0.81815900    -0.00297700
  N    -0.90099200     1.79542500     0.00285100
  H    -1.99861000    -1.93480100    -0.05119000
  H    -2.42835500    -0.40302000    -0.84699200
  H    -2.39610900    -0.49414700     0.91430700
  H     0.39119600    -2.42346100     0.00114800
  H     2.70972300    -1.15160400     0.00863000
  H     1.82802500     1.27951200    -0.88358700
  H     1.82698800     1.28862000     0.87590600
  H    -0.40181800     2.67789800     0.00621900
