   15
bigqm7wdef2tzvp_000605.xyz
  C     2.58768800    -0.06113800     0.05324000
  N     1.22866100     0.28464600    -0.32063500
  C     0.23089100    -0.58891600     0.26836600
  C    -1.18349500    -0.08467400     0.04142800
  N    -1.30362000     1.26704200     0.15619100
  N    -2.20002000    -0.82188600    -0.17127100
  H     3.28772200     0.59578000    -0.46323900
  H     2.85678600    -1.10301600    -0.17469900
  H     2.71722700     0.09051200     1.12679600
  H     1.13581300     0.26959700    -1.32795100
  H     0.40433800    -0.61057900     1.34902800
  H     0.29357100    -1.62657500    -0.08887200
  H    -0.46473300     1.81142700     0.05558500
  H    -2.18348600     1.67254500    -0.10767100
  H    -1.93289600    -1.79993200    -0.19717700
