   12
bigqm7wdef2tzvp_009659.xyz
  F     2.41197400    -0.29060300     0.00000000
  C     1.21342200    -0.86987100     0.00000000
  C     0.08492900    -0.15721700     0.00000000
  C     0.07964400     1.30998000    -0.00000000
  C    -1.01866800     2.05450100     0.00000000
  C    -1.15011100    -0.87718900     0.00000200
  C    -2.19908800    -1.45695600    -0.00000200
  H     1.26380200    -1.95026400     0.00000100
  H     1.05500900     1.78072100    -0.00000100
  H    -2.00666200     1.60996500     0.00000100
  H    -0.95491200     3.13436600    -0.00000000
  H    -3.12577900    -1.97884600    -0.00000100
