   18
bigqm7wdef2tzvp_009202.xyz
  C     2.21762700    -0.23321100     0.09661200
  C     0.88352200     0.11306400    -0.54268900
  C     0.09110900     1.26742000     0.15163100
  N    -1.21433800     0.64319900     0.47348200
  C    -1.45302000    -0.11952700    -0.80314200
  C    -0.21650100    -0.94821900    -0.40964500
  C    -0.74009800    -0.67738400     1.01412300
  H     2.90558200     0.61309200     0.04065400
  H     2.68983700    -1.07874800    -0.40794000
  H     2.10405400    -0.49311700     1.15141800
  H     1.04869400     0.34166900    -1.59886100
  H    -0.06392300     2.13154000    -0.49421200
  H     0.57161600     1.60591200     1.07116200
  H    -1.41651000     0.48104700    -1.71467300
  H    -2.39477800    -0.66404100    -0.74508500
  H    -0.00959000    -1.94478900    -0.79772000
  H    -0.03803100    -0.61196100     1.84673400
  H    -1.59241700    -1.29585600     1.29281100
