   19
bigqm7wdef2tzvp_009317.xyz
  C    -2.58730100    -0.11669900     0.00802600
  C    -1.23828600    -0.76290300    -0.24715100
  N    -0.13668100    -0.00094200     0.32526400
  C     1.05633100    -0.73955800     0.69596500
  C     1.91126400    -1.19673000    -0.48436100
  N    -0.05613800     1.24807700    -0.16202200
  C     0.99298800     1.96119300    -0.05759300
  H    -3.38105000    -0.72768900    -0.42534600
  H    -2.62751500     0.87475600    -0.43972700
  H    -2.76810800    -0.01748700     1.07934100
  H    -1.09183800    -0.90816700    -1.32579400
  H    -1.20958400    -1.75173000     0.21475200
  H     0.72631100    -1.60448800     1.27332300
  H     1.64531100    -0.12757700     1.38232700
  H     1.35423400    -1.88768400    -1.11919900
  H     2.80578100    -1.71061600    -0.12891700
  H     2.22513600    -0.35290500    -1.09920800
  H     0.93158800     2.97290500    -0.43792700
  H     1.92948800     1.63891200     0.39436000
