   14
bigqm7wdef2tzvp_012298.xyz
  O    -1.82460600    -1.27554500    -0.10707100
  C    -0.61786200    -0.70877800    -0.46716500
  C    -0.41354900     0.75714900    -0.31445000
  F    -1.46711100     1.43916800     0.23807100
  C     0.33392600    -0.16156500     0.59845600
  C     1.79064800    -0.38154500     0.49784100
  C     2.61583800     0.18581800    -0.37105600
  H    -2.43581100    -0.57317400     0.13040600
  H    -0.15495400    -1.19536000    -1.31793400
  H     0.08689500     1.34781500    -1.07046800
  H    -0.09067000    -0.21720000     1.59479000
  H     2.18885500    -1.11318600     1.19449600
  H     2.28581000     0.92728400    -1.08946900
  H     3.66671400    -0.07080400    -0.38966000
