   16
bigqm7wdef2tzvp_003195.xyz
  C     1.30340600     1.43362800     0.38710700
  C     1.17744900     0.07208200    -0.27842000
  C     2.51562000    -0.62242400    -0.42403900
  O     0.35692800    -0.79980200     0.50021100
  C    -0.98010300    -0.66856600     0.43119800
  C    -1.68825500     0.19275100    -0.28677100
  F    -3.03497600     0.13862300    -0.23489700
  H     1.89403700     2.10308400    -0.24021400
  H     1.80491700     1.33067200     1.35083100
  H     0.33010500     1.89345600     0.55535100
  H     0.72074300     0.17865500    -1.26975200
  H     2.96526800    -0.78252100     0.55739900
  H     3.19385200    -0.01007900    -1.01974800
  H     2.39691000    -1.58896600    -0.91311600
  H    -1.49154400    -1.39117400     1.05499000
  H    -1.32362200     0.97286000    -0.93780500
