   14
bigqm7wdef2tzvp_004342.xyz
  C    -2.50809300    -0.30520600     0.57927800
  N    -1.67683400    -0.44754700    -0.61307600
  N    -0.32096400    -0.54031300    -0.29487700
  C     0.43448000     0.55178700    -0.06391600
  O     0.00883200     1.68900200    -0.05150800
  C     1.90943700     0.29450500     0.17988600
  F     2.23654100    -1.04774800     0.10879900
  H    -3.53985200    -0.17144500     0.25356200
  H    -2.21697400     0.54304800     1.20641500
  H    -2.45281300    -1.22269900     1.16548200
  H    -1.78316400     0.37470200    -1.19567100
  H     0.11005200    -1.43981800    -0.41533900
  H     2.16616200     0.66588300     1.17308600
  H     2.48669800     0.83655500    -0.57048300
