   18
bigqm7wdef2tzvp_011411.xyz
  C     2.60029200    -0.24301300     0.50581800
  C     1.69219300     0.41530300    -0.53429100
  C     0.23780800     0.24091400    -0.23971200
  C    -0.66675200     1.17962500     0.00019600
  C    -2.00881700     0.57530000     0.30734200
  N    -1.84470000    -0.85996200     0.03116000
  C    -0.40760100    -1.11971400    -0.11480400
  H     3.65052700    -0.07072300     0.26641200
  H     2.44178900    -1.32199500     0.54741700
  H     2.40663000     0.16215700     1.50063700
  H     1.91136100    -0.01549700    -1.51752200
  H     1.92078900     1.48110600    -0.60130700
  H    -0.47353100     2.24458800     0.02370500
  H    -2.81787400     0.99991200    -0.29340800
  H    -2.27804300     0.74166800     1.35802300
  H    -2.31056100    -1.08415600    -0.83408600
  H    -0.20441700    -1.75986300    -0.97916900
  H    -0.01650100    -1.64796300     0.76388000
