   15
bigqm7wdef2tzvp_005735.xyz
  C    -1.51973800    -1.47409400     0.05673700
  C    -1.09926300    -0.03495400    -0.00844100
  C    -1.97732900     0.96125800    -0.11568800
  N     0.27678200     0.20024500     0.08015200
  O     0.68205200     1.51396500    -0.00906700
  C     1.29273800    -0.73338400    -0.01488600
  N     2.53477900    -0.51610300    -0.09144900
  H    -2.60565600    -1.52576500     0.06053100
  H    -1.15024300    -1.96323600     0.96023300
  H    -1.15740300    -2.03805400    -0.80511600
  H    -3.03200500     0.73400000    -0.15383900
  H    -1.67478100     1.99391600    -0.19193500
  H     0.65054600     1.85683000     0.89175400
  H     0.92561100    -1.75429400    -0.00066800
  H     2.72814500     0.48293700    -0.11568300
