   14
bigqm7wdef2tzvp_006195.xyz
  C     2.22961300     0.57843700    -0.00000100
  C     0.96728600    -0.19879900     0.00000100
  F     1.20681600    -1.52168200     0.00000200
  C    -0.28946600     0.25414200     0.00000100
  C    -0.61710800     1.72171500     0.00000000
  C    -1.40895800    -0.70690700    -0.00000300
  O    -2.56928800    -0.37542800     0.00000200
  H     2.82183900     0.32168700     0.88099300
  H     2.03646800     1.64777000    -0.00000900
  H     2.82184200     0.32167500    -0.88099000
  H    -0.22195100     2.22555600     0.88354400
  H    -1.69936300     1.83851800     0.00002600
  H    -0.22199500     2.22554500    -0.88357000
  H    -1.13208400    -1.77371900    -0.00001200
