   20
bigqm7wdef2tzvp_002426.xyz
  C    -1.67014200    -1.13206300    -0.10515300
  C    -0.84319500     0.10985400    -0.42895300
  C    -1.49972800     1.35829900     0.15686000
  C     0.63244500    -0.04132400    -0.01994900
  C     1.47083700     1.16091800    -0.41915300
  C     0.84167400    -0.40088500     1.44045300
  F     1.13095000    -1.12723300    -0.77125400
  H    -2.64669600    -1.06711300    -0.58797600
  H    -1.84360400    -1.22553800     0.96941300
  H    -1.17879900    -2.03958400    -0.45478000
  H    -0.82034100     0.22112100    -1.51806600
  H    -1.51044200     1.32749600     1.24905700
  H    -2.53702300     1.42152700    -0.17581600
  H    -0.99851700     2.27531700    -0.15342000
  H     1.25547500     2.01809300     0.21891100
  H     1.27887700     1.43952700    -1.45647500
  H     2.52809100     0.91603400    -0.31511300
  H     0.43692800     0.37452100     2.09211400
  H     1.90778800    -0.49838600     1.64748000
  H     0.35836600    -1.34671000     1.68132900
