   19
bigqm7wdef2tzvp_010957.xyz
  C    -2.56183300     0.15798100    -0.14864500
  O    -1.32852100    -0.41235400    -0.48667000
  C    -0.34219100    -0.30364400     0.52571500
  C     0.80816400    -1.26008900     0.15911800
  C     2.02141400    -0.37856000    -0.18996300
  C     1.42267000     1.00095600    -0.46776900
  C     0.29952900     1.09038000     0.56158300
  H    -3.24458900    -0.03190000    -0.97595200
  H    -2.49595300     1.24200600     0.00607500
  H    -2.97384100    -0.29480500     0.76341400
  H    -0.80186200    -0.56148100     1.48809100
  H     0.48440800    -1.85102700    -0.69758300
  H     1.02632400    -1.95468200     0.97020000
  H     2.59540600    -0.77221900    -1.02881600
  H     2.70021200    -0.31394000     0.66450000
  H     0.99989000     1.03326600    -1.47487900
  H     2.14982600     1.80918000    -0.38395000
  H    -0.41911700     1.88661800     0.36592800
  H     0.72094400     1.26566600     1.55609800
