   11
bigqm7wdef2tzvp_011728.xyz
  O    -2.31575300     0.30023200    -0.58336800
  C    -1.59717100    -0.31330900     0.46306500
  C    -0.14090900    -0.13278100     0.20315200
  N     0.49751200     1.08365900     0.23954700
  C     1.70736100     0.74668200    -0.03444800
  O     1.87998700    -0.55279200    -0.23048300
  N     0.63746800    -1.13436000    -0.07071700
  H    -3.22065200     0.43145000    -0.30001200
  H    -1.80471500    -1.38605000     0.52536300
  H    -1.82622700     0.14663000     1.43060700
  H     2.57716800     1.37980800    -0.11757500
