   14
bigqm7wdef2tzvp_009905.xyz
  C     3.10649600    -0.45206900    -0.15143900
  N     1.84057900    -0.45792900    -0.12257400
  N     1.18666700     0.66988700     0.25760700
  C    -0.17958400     0.74927600    -0.21300200
  C    -1.03757700    -0.30915600     0.48436000
  C    -2.42405800    -0.25733400     0.03817700
  N    -3.51023700    -0.19435500    -0.32497400
  H     3.61208300    -1.37129000    -0.41633000
  H     3.70561000     0.43108600     0.08657700
  H     1.71367900     1.52773700     0.13759100
  H    -0.25302700     0.62120200    -1.29874600
  H    -0.55201800     1.74418400     0.03278700
  H    -1.00440200    -0.16047500     1.56489700
  H    -0.63264800    -1.29996500     0.27423500
