   18
bigqm7wdef2tzvp_007338.xyz
  C     2.42525800    -1.04400700     0.00794900
  C     1.29882300    -0.05109600    -0.01550100
  C     1.73754700     1.38433900    -0.01287000
  C     0.03062800    -0.45708300    -0.04280700
  C    -1.18549400     0.37701000    -0.06979300
  C    -2.43547800    -0.18936500    -0.63066900
  N    -2.31217000     0.02438000     0.80589600
  H     3.04485200    -0.90381200     0.89859300
  H     3.08122000    -0.90493900    -0.85652600
  H     2.06312000    -2.07192700     0.00015000
  H     2.39245800     1.57487300     0.84189600
  H     0.91141300     2.09004400     0.03315300
  H     2.32196600     1.60365600    -0.91114300
  H    -0.15947500    -1.52963800    -0.03946300
  H    -1.04490200     1.44657100    -0.15872900
  H    -2.39472300    -1.20372000    -1.01353000
  H    -3.14236400     0.45970400    -1.13327700
  H    -2.11607500    -0.85025400     1.27974100
