   11
bigqm7wdef2tzvp_011374.xyz
  N     1.84917000     1.65538900     0.00000000
  C     0.60471100     1.51799200     0.00000000
  N     0.00000000     0.24680200    -0.00000000
  N    -1.32705200     0.15337800    -0.00000000
  C    -1.54916600    -1.14396300    -0.00000000
  C    -0.30862200    -1.80568400     0.00000000
  N     0.65217200    -0.90465900     0.00000000
  H     2.09409700     2.64026600     0.00000000
  H    -0.16202300     2.29205800    -0.00000000
  H    -2.55060400    -1.53991300    -0.00000000
  H    -0.08303800    -2.85885700     0.00000000
