   17
bigqm7wdef2tzvp_010243.xyz
  C     2.79175400     1.05184800    -0.05291400
  C     2.40469400    -0.39660600     0.18296200
  N     1.11927300    -0.71997900    -0.41551700
  N     0.05854400    -0.10283600     0.15844600
  C    -1.09822100    -0.60961500     0.03140800
  C    -2.29412300     0.09950900     0.57977600
  O    -3.18233500     0.51076400    -0.44568500
  H     3.76216500     1.26171400     0.39976800
  H     2.05368900     1.72015000     0.38959100
  H     2.85043100     1.26343300    -1.12144100
  H     2.40634100    -0.61444600     1.25871500
  H     3.13543100    -1.05937500    -0.28504700
  H     0.98329600    -1.71053500    -0.58405400
  H    -1.26565900    -1.54186900    -0.51998700
  H    -1.95382400     0.94370500     1.18793100
  H    -2.87668900    -0.57012600     1.21546000
  H    -2.70583000     1.11012500    -1.02335100
