   17
bigqm7wdef2tzvp_012716.xyz
  C     2.18647500    -0.42828800    -0.31615100
  C     0.89124700    -0.19949600     0.46000300
  C     0.43525200     1.24043000     0.39648300
  C    -0.71888900     1.37976400    -0.24687300
  C    -1.28796200     0.06525000    -0.64190500
  C    -1.62788400    -0.84639000     0.51188400
  C    -0.28719700    -0.95581600    -0.14377700
  H     2.99878400     0.17926600     0.08727800
  H     2.05214700    -0.15910700    -1.36602800
  H     2.49055800    -1.47619900    -0.26634300
  H     1.05016600    -0.50206400     1.50087600
  H     1.00660400     2.04816500     0.83635300
  H    -1.22125000     2.32014100    -0.43272600
  H    -1.82084100    -0.04811300    -1.57627400
  H    -2.33064200    -1.64787200     0.32424200
  H    -1.69276000    -0.40059400     1.49711200
  H    -0.07901400    -1.84635200    -0.72247600
