   10
bigqm7wdef2tzvp_006047.xyz
  O    -1.90286300    -0.80797200    -0.00000000
  C    -0.56323400    -0.80269800    -0.00000000
  O     0.10552300    -1.79471600    -0.00000000
  C     0.00000000     0.58220000     0.00000000
  C    -0.75454900     1.67829300    -0.00000000
  C     1.43175700     0.67388200     0.00000000
  N     2.57363400     0.78553400     0.00000000
  H    -2.18155300    -1.73151400    -0.00000000
  H    -1.83264700     1.60154200    -0.00000000
  H    -0.30636200     2.66266400     0.00000000
