   13
bigqm7wdef2tzvp_009568.xyz
  N     2.05273400    -0.97678200     0.10567700
  C     0.73006200    -1.19007600    -0.02808300
  C    -0.24444400    -0.25811500     0.08438300
  C     0.03745900     1.17099700     0.40464400
  F     1.06433600     1.67829600    -0.40774900
  C    -1.61618200    -0.68911000    -0.10337600
  O    -2.59151000     0.02425300    -0.04032700
  H     2.70093000    -1.71061800    -0.10459600
  H     2.40140500    -0.03384500     0.08658500
  H     0.44792000    -2.21812800    -0.23478500
  H     0.37764700     1.30011700     1.43651700
  H    -0.85477100     1.77351800     0.23924800
  H    -1.73058100    -1.77444000    -0.31575200
