   16
bigqm7wdef2tzvp_010732.xyz
  C    -0.68782700     1.85412000    -0.34799600
  C    -0.62227300     0.55797800     0.42844900
  C    -1.79414800    -0.44316500     0.25922400
  C    -0.77114400    -1.49129500    -0.23839200
  N     0.26144100    -0.46553300    -0.13309800
  C     1.60229200    -0.53840300    -0.11813000
  O     2.33834800     0.36148100     0.22318300
  H    -1.45789700     2.50342600     0.07360800
  H    -0.92955900     1.66310700    -1.39555000
  H     0.26982600     2.37192100    -0.30040500
  H    -0.37218500     0.75998700     1.47390100
  H    -2.51643700    -0.13860200    -0.49602100
  H    -2.31775900    -0.70764400     1.17426000
  H    -0.92997200    -1.86442400    -1.25145600
  H    -0.62029200    -2.33649100     0.43681600
  H     1.97598900    -1.51981300    -0.46786200
