   15
bigqm7wdef2tzvp_006398.xyz
  N    -1.92110800     0.62191600    -0.38529500
  C    -0.59569400     0.21811200    -0.00664800
  C     0.42134900     1.25826200    -0.43576500
  F     1.58335000     1.21676200     0.31366900
  C    -0.32188500    -0.58472600     1.24615500
  C    -0.23680400    -1.22646300    -0.11082300
  O     0.98825100    -1.55606200    -0.67492100
  H    -2.38573400     1.13953700     0.34748400
  H    -2.50158500    -0.15783600    -0.65332000
  H    -0.02037500     2.24883700    -0.30840900
  H     0.69364700     1.11553300    -1.48334200
  H    -1.16373400    -0.84598500     1.87427800
  H     0.60867700    -0.38581500     1.76111900
  H    -1.04319800    -1.90526900    -0.38194900
  H     1.50210500    -2.05587900    -0.03997300
