   19
bigqm7wdef2tzvp_003318.xyz
  C     3.05147800     0.10772200     0.62408500
  C     2.10369900    -0.29261100    -0.49707300
  N     0.80222000     0.30763000    -0.31561100
  C    -0.19794800    -0.46597800    -0.24879000
  N    -1.48872500    -0.03585800    -0.15046700
  C    -1.74311100     1.37437800     0.01941500
  C    -2.50515800    -0.94095800     0.32385400
  H     4.04964800    -0.30057500     0.45328300
  H     2.68758800    -0.26098000     1.58503200
  H     3.12575300     1.19416300     0.68671200
  H     2.04692300    -1.39149200    -0.55800800
  H     2.51492200     0.05464500    -1.45035100
  H    -0.10808900    -1.55954300    -0.29392900
  H    -1.03731600     1.94140300    -0.58301900
  H    -1.62520700     1.68840700     1.06414100
  H    -2.76236300     1.59672700    -0.30057500
  H    -2.22525400    -1.96845900     0.09120000
  H    -3.45632700    -0.72866000    -0.16919500
  H    -2.65850700    -0.86335500     1.40831200
