   10
bigqm7wdef2tzvp_001551.xyz
  O    -0.28880600     1.99259300     0.00000000
  C     0.00000000     0.67591800     0.00000000
  C     1.14743500    -0.05983400     0.00000000
  N     0.82990400    -1.40022500     0.00000000
  C    -0.46742300    -1.46196900     0.00000000
  N    -1.02955500    -0.21505000     0.00000000
  H    -2.00488300     0.02127600     0.00000000
  H     0.52950400     2.49117300     0.00000000
  H     2.16702900     0.28928000     0.00000000
  H    -1.06371900    -2.36023900     0.00000000
