   13
bigqm7wdef2tzvp_002181.xyz
  C     2.30537700    -0.43862300    -0.11780400
  C     0.98064600    -0.02408100     0.45282000
  C     0.26892900     1.21228100     0.00413200
  N    -0.18205400    -0.09053100    -0.40773100
  C    -1.39700700    -0.61950100    -0.02851900
  O    -2.43033200    -0.00902600     0.02134900
  H     3.12155300     0.00606800     0.45419000
  H     2.39011800    -0.11660200    -1.15607400
  H     2.41851400    -1.52348300    -0.08605700
  H     0.80948900    -0.30223500     1.48989400
  H     0.71556400     1.82187600    -0.77256800
  H    -0.35303800     1.74281600     0.71611600
  H    -1.33283100    -1.70297500     0.17405200
