   17
bigqm7wdef2tzvp_011669.xyz
  C    -2.53698300     0.26557800     0.54668900
  C    -1.65715500    -0.38175500    -0.52318600
  C    -0.19678300    -0.20516600    -0.25411900
  C     0.70976500    -1.15160700     0.02957000
  C     2.05131300    -0.52567200     0.24641700
  C     1.77751700     0.93176300     0.04247200
  C     0.48180500     1.09941400    -0.24291700
  H    -3.59496400     0.13489700     0.31387500
  H    -2.34071300     1.33670500     0.62418600
  H    -2.34407200    -0.17851900     1.52466400
  H    -1.89836000     0.05506700    -1.49762200
  H    -1.88411500    -1.44770400    -0.59265800
  H     0.52048500    -2.21393200     0.09543500
  H     2.80128200    -0.90024600    -0.45935600
  H     2.44420100    -0.72909800     1.24899900
  H     2.52852200     1.70467400     0.11627500
  H    -0.00914400     2.04282500    -0.44335400
