   19
bigqm7wdef2tzvp_003061.xyz
  C    -1.92308900     1.38288000     0.02818200
  C    -1.60523500    -0.08208900     0.11725600
  C    -2.51536300    -1.01495000    -0.13440200
  C    -0.19646000    -0.44031400     0.50915600
  C     0.86003200     0.01188900    -0.51052500
  C     2.23301300    -0.45133200    -0.13719800
  C     3.25876300     0.34133900     0.13073500
  H    -2.98121600     1.55096600    -0.16959700
  H    -1.34989100     1.86301700    -0.76900500
  H    -1.65899900     1.89194900     0.95941200
  H    -3.53010900    -0.75679300    -0.41384000
  H    -2.27731800    -2.07008200    -0.06652500
  H    -0.12148900    -1.52176700     0.64579600
  H     0.03932600     0.01840600     1.47562000
  H     0.85671400     1.10025000    -0.60367800
  H     0.59052000    -0.39596800    -1.49045800
  H     2.36869000    -1.52883800    -0.07382600
  H     3.16610200     1.42128700     0.08242300
  H     4.22770600    -0.05697200     0.40445500
