   14
bigqm7wdef2tzvp_008335.xyz
  C    -1.53756200    -1.33975100    -0.02413400
  N    -0.28666400    -0.62486500     0.00549600
  C     0.98571200    -1.16465700     0.01925100
  C     1.83268300    -0.10402100     0.00195500
  N     1.13023400     1.07729200    -0.00082200
  C    -0.12724900     0.72224000     0.00293600
  N    -1.21678100     1.58229900    -0.07335200
  H    -1.38063000    -2.32131600    -0.46752800
  H    -2.25246200    -0.78967700    -0.63619400
  H    -1.95246400    -1.47124500     0.97834300
  H     1.14939400    -2.22806300     0.04155300
  H     2.91021500    -0.11620000    -0.00192200
  H    -0.89519100     2.53789100    -0.10484800
  H    -1.88789200     1.46266800     0.67129500
