   12
bigqm7wdef2tzvp_008470.xyz
  N     1.73634900    -1.17009500     0.00002300
  C     0.48515400    -0.53205700    -0.00000100
  N    -0.67362400    -1.26643700    -0.00000300
  H    -0.68052600    -2.26939800     0.00001600
  C    -1.75793600    -0.44664500     0.00000200
  C    -1.31665200     0.85349200     0.00000700
  C     0.09005200     0.77946000    -0.00000600
  F     0.92848000     1.82070200    -0.00000900
  H     2.28153700    -0.94551400     0.81990100
  H     2.28144400    -0.94577900    -0.81999100
  H    -2.75998400    -0.83929900    -0.00001300
  H    -1.92157100     1.74388600     0.00001900
