   12
bigqm7wdef2tzvp_008453.xyz
  F    -0.00711600    -1.46842700     1.46567100
  C    -0.00905400    -0.41416100     0.65948500
  C    -0.00905400    -0.41416100    -0.65948500
  F    -0.00711600    -1.46842700    -1.46567100
  C    -0.00905400     0.97258300    -1.20728400
  N     0.15177600     1.79190600    -0.00000000
  C    -0.00905400     0.97258300     1.20728400
  H    -0.94174800     1.17700800    -1.74889700
  H     0.81798600     1.12514000    -1.90874300
  H    -0.46953100     2.58297900    -0.00000000
  H    -0.94174800     1.17700800     1.74889700
  H     0.81798600     1.12514000     1.90874300
