   21
bigqm7wdef2tzvp_002856.xyz
  C     2.44495200     1.20424600     0.09681500
  C     1.50955000     0.07299000    -0.32728000
  N     2.00202300    -1.25694500     0.03186500
  C     0.11145500     0.27491400     0.24866200
  C    -0.92174600    -0.71333100    -0.27460700
  C    -2.31774700    -0.48392700     0.28677300
  N    -2.84345600     0.81818500    -0.11508600
  H     3.44518500     1.06006700    -0.31805400
  H     2.53324900     1.23646400     1.18678500
  H     2.07515900     2.17551900    -0.23948300
  H     1.42762800     0.08746900    -1.41998300
  H     2.11708200    -1.31916600     1.03733900
  H     2.91259900    -1.42178100    -0.37718000
  H    -0.22317100     1.29249100     0.03804000
  H     0.16957900     0.19385600     1.34243100
  H    -0.60229200    -1.73138600    -0.04510700
  H    -0.96291800    -0.64788400    -1.36889100
  H    -2.27157200    -0.50051200     1.37983200
  H    -2.96334000    -1.32071600    -0.01508200
  H    -2.98603500     0.84261000    -1.11687900
  H    -3.73991300     0.99493700     0.31660100
