   14
bigqm7wdef2tzvp_000723.xyz
  C    -2.07885100    -0.96726000     0.05337400
  C    -1.02501600     0.10128900    -0.01657400
  C    -1.31764600     1.39866100    -0.03047300
  C     0.35980800    -0.39594000    -0.07915300
  N     1.36749600     0.36023900     0.08148400
  N     2.60833600    -0.16966200    -0.07490300
  H    -3.07817400    -0.53607000     0.09066200
  H    -1.94154200    -1.59468600     0.93837400
  H    -2.02307100    -1.62621000    -0.81771700
  H    -2.34372300     1.73956300     0.02752600
  H    -0.53716900     2.14516300    -0.09700500
  H     0.49090200    -1.46784900    -0.27464000
  H     3.29133700     0.35566700     0.44447600
  H     2.68084700    -1.17011300     0.07920800
