   15
bigqm7wdef2tzvp_009456.xyz
  N    -2.45074200     0.01432800    -0.23792000
  C    -1.32713900    -0.73491200     0.30551000
  C    -0.02806300     0.02345600     0.25420300
  C     1.21906100    -0.77537300     0.51296500
  O     1.50866200    -1.67436200    -0.54661900
  C     0.00089300     1.31552700    -0.02310800
  F     1.15143000     2.01161200    -0.07978500
  H    -3.32236700    -0.44546900    -0.01758900
  H    -2.38505700     0.06844000    -1.24618000
  H    -1.16218100    -1.70263600    -0.18723600
  H    -1.54687800    -0.95981900     1.35449400
  H     1.07508100    -1.40433000     1.39425900
  H     2.06545200    -0.11341500     0.70998900
  H     1.67882600    -1.15373300    -1.33365400
  H    -0.86836200     1.92885900    -0.21504800
