   13
bigqm7wdef2tzvp_004855.xyz
  N     2.97114500    -0.24485500    -0.08118600
  N     1.68669300     0.27809100    -0.00708900
  C     0.70659100    -0.52381400    -0.02353600
  N    -0.56310900    -0.00743500    -0.01909000
  O    -0.66866900     1.36325600     0.00915500
  C    -1.73404100    -0.72401300    -0.00408500
  N    -2.91398100    -0.27739400     0.02339000
  H     3.61112200     0.45437300     0.26254700
  H     3.07993400    -1.08965100     0.46968700
  H     0.76277200    -1.61055300    -0.05038400
  H     0.26397500     1.64477000    -0.01594400
  H    -1.54463800    -1.79679500    -0.02145900
  H    -2.92433700     0.73992900     0.03586500
