   14
bigqm7wdef2tzvp_009935.xyz
  C     3.17768500    -0.21546100     0.19890000
  C     1.99995900    -0.35331200    -0.38584800
  C     0.69643600    -0.16346300     0.31259000
  O    -0.08325300     0.76203000    -0.43037100
  C    -1.34547800     0.99396700     0.10883700
  C    -2.22950700    -0.18724800     0.03910100
  N    -2.90647300    -1.11137200    -0.01039100
  H     4.09970100    -0.39689600    -0.33823800
  H     3.26390600     0.07850800     1.23932700
  H     1.93309100    -0.64155200    -1.43004700
  H     0.85193600     0.20865300     1.33356900
  H     0.16328000    -1.12193000     0.37735600
  H    -1.80283700     1.79897500    -0.46657400
  H    -1.29231000     1.31070400     1.15884000
