   15
bigqm7wdef2tzvp_011427.xyz
  N    -2.65164200    -0.37655000    -0.03327500
  C    -1.65101400     0.66789100    -0.01850100
  C    -0.21477100     0.23368200     0.01339200
  N     0.12291700    -0.98824600     0.02478200
  O     1.50259100    -1.10567900     0.08468800
  C     2.08814300     0.18544000    -0.13885200
  C     0.95507300     1.17632200     0.09290300
  H    -2.50936400    -0.97539400    -0.83673400
  H    -2.53546600    -0.97316100     0.77601400
  H    -1.82557400     1.31711700     0.84648200
  H    -1.79417300     1.31005200    -0.89381100
  H     2.45509200     0.22738500    -1.16870100
  H     2.92683300     0.29559000     0.54637100
  H     0.91083900     1.96488700    -0.65815300
  H     0.98757700     1.65251900     1.07683000
