   17
bigqm7wdef2tzvp_006259.xyz
  C    -0.87984600     1.80946700    -0.01642200
  C    -0.18392500     0.46148900     0.00116800
  C     1.32860400     0.64986600     0.04765100
  O     2.07578800    -0.53633300    -0.08770900
  C    -0.73644300    -0.55590900     1.01843400
  O    -1.07671400    -1.48371100    -0.01245100
  C    -0.66890400    -0.56620400    -1.03930300
  H    -0.61468000     2.40050000     0.86392500
  H    -1.96412200     1.68831200    -0.02541200
  H    -0.59754900     2.38314800    -0.90238700
  H     1.59042000     1.17643000     0.97645100
  H     1.63644200     1.28661000    -0.78498300
  H     1.84571000    -1.14050400     0.62048100
  H    -1.61575700    -0.21670300     1.57576400
  H    -0.01916900    -0.97885200     1.73321400
  H    -1.51729400    -0.23706400    -1.64714800
  H     0.10650100    -0.99378500    -1.67779100
