   19
bigqm7wdef2tzvp_002427.xyz
  C    -1.72757900    -1.04792100    -0.10088200
  C    -0.83839600     0.14826400    -0.43103700
  N    -1.32300600     1.40984200     0.12551900
  C     0.63324100    -0.05696000    -0.01663300
  C     1.52891600     1.01263000    -0.60947000
  C     0.82538700    -0.18352200     1.48353100
  F     1.03242100    -1.28248100    -0.58457400
  H    -2.72395600    -0.88932600    -0.51761900
  H    -1.83727400    -1.17088400     0.97943600
  H    -1.32579400    -1.97373500    -0.51106600
  H    -0.82004400     0.26787200    -1.51812000
  H    -1.61879400     1.28138100     1.08537900
  H    -2.13116500     1.73326100    -0.38728200
  H     1.23066500     1.99277700    -0.24114800
  H     1.44734000     1.00987500    -1.69738400
  H     2.56840400     0.82446300    -0.33851100
  H     0.54450500     0.74581900     1.98060800
  H     1.87453300    -0.38197700     1.70320500
  H     0.23142500    -1.00103600     1.89198600
