   12
bigqm7wdef2tzvp_009942.xyz
  N     3.24591100    -0.17438900    -0.05166300
  C     2.02653200    -0.40322600     0.17186600
  N     1.06975200     0.56170100    -0.11129800
  O    -0.16947400     0.00998400    -0.45269700
  C    -1.14993800     0.51861900     0.43123800
  C    -2.43280800    -0.08714100     0.07731900
  N    -3.45200500    -0.54581600    -0.17384700
  H     3.82923000    -0.93100500     0.28607200
  H     1.59649500    -1.29718500     0.62918800
  H     1.36212900     1.21132200    -0.83214300
  H    -1.23150400     1.60630600     0.34469400
  H    -0.90888000     0.27071100     1.46887500
