   20
bigqm7wdef2tzvp_007166.xyz
  C    -2.80865900    -0.31286000    -0.16759600
  C    -1.33419000    -0.08267600    -0.41796900
  C    -0.67034400     1.17064300     0.20029700
  C     0.55139100     0.30603300     0.58533000
  C     1.71549000     0.44813800    -0.37827100
  N     2.73197200    -0.56268200    -0.11780100
  C    -0.31029000    -0.95330400     0.34782900
  H    -3.41888600     0.44713100    -0.66154200
  H    -3.02800400    -0.27516000     0.90285000
  H    -3.12449400    -1.29050400    -0.53918700
  H    -1.13372300    -0.12261800    -1.49111600
  H    -1.21829500     1.52206000     1.07671000
  H    -0.48577900     2.02157400    -0.45881200
  H     0.91545800     0.43977500     1.60743300
  H     2.09361000     1.48017500    -0.31838200
  H     1.35511600     0.30509500    -1.40195000
  H     3.14151300    -0.42466700     0.79712000
  H     3.48151200    -0.50736900    -0.79320700
  H    -0.73428200    -1.34248600     1.27572100
  H     0.17205800    -1.77007200    -0.18875600
