   12
bigqm7wdef2tzvp_001857.xyz
  C     2.91409400    -0.21446000    -0.00000100
  C     1.56123200     0.40607600     0.00000600
  N     0.51491600    -0.30772600    -0.00000300
  N    -0.68567900     0.32512600    -0.00000100
  C    -1.84237800    -0.39589300     0.00000200
  O    -2.93745000     0.10533000    -0.00000000
  H     3.48071300     0.10189800     0.87907700
  H     3.48068300     0.10185600    -0.87911400
  H     2.83240100    -1.29977500     0.00002400
  H     1.49926900     1.49992100     0.00001100
  H    -0.74805800     1.33696500    -0.00001600
  H    -1.64774700    -1.47964400     0.00000900
