   17
bigqm7wdef2tzvp_003320.xyz
  C    -3.04364200     0.18957000    -0.47198000
  C    -2.03397500    -0.42434300     0.48688800
  N    -0.73000400     0.17965100     0.33182900
  C     0.23767600    -0.53626400    -0.06567400
  N     1.45301400     0.02415600    -0.32255400
  C     2.67331300    -0.69347200    -0.05705400
  O     1.55042500     1.35063400     0.09505500
  H    -4.03639900    -0.23407000    -0.30915600
  H    -2.75421200     0.00326800    -1.50765100
  H    -3.09877900     1.26901900    -0.32580400
  H    -1.99563400    -1.51325800     0.33706700
  H    -2.36646000    -0.25521500     1.51474900
  H     0.18843300    -1.60880200    -0.27195300
  H     2.55487700    -1.71675400    -0.41320000
  H     2.91766600    -0.69972600     1.01055200
  H     3.48833500    -0.22483700    -0.60665300
  H     0.63747600     1.53570300     0.39360600
