   19
bigqm7wdef2tzvp_009062.xyz
  C    -1.78117700     1.30546700     0.08068600
  C    -1.27430200    -0.10464100     0.39087100
  N    -1.53278600    -1.07195800    -0.66529400
  C     0.20968100    -0.05466700     0.68644000
  C     1.13217500    -1.19063400     0.46493700
  N     1.10878400    -0.05908200    -0.44912900
  C     2.23788700     0.84409900    -0.39196600
  H    -2.85508600     1.29629800    -0.11692200
  H    -1.27360900     1.69699900    -0.80447900
  H    -1.59827600     1.99001400     0.91300500
  H    -1.77345100    -0.46489600     1.29691200
  H    -0.98551600    -0.82202700    -1.48143600
  H    -2.50865500    -1.05922200    -0.92733100
  H     0.47321700     0.61834000     1.50092000
  H     0.74648000    -2.12109000     0.06929000
  H     1.98554900    -1.27424000     1.13253300
  H     3.03482900     0.47138900    -1.03758600
  H     2.64312000     0.96045500     0.62483800
  H     1.93382800     1.82752400    -0.75458800
