   14
bigqm7wdef2tzvp_010517.xyz
  O     3.49621300     0.22815700    -0.05879800
  C     2.14223400     0.48005800     0.25001700
  C     1.32726400    -0.66579900    -0.33492500
  C    -0.09815600    -0.51890300    -0.07382500
  C    -1.26670300    -0.37130600     0.14832400
  C    -2.68696500    -0.21469800     0.42385100
  F    -3.26940200     0.70827400    -0.42822400
  H     4.03205000     0.94542600     0.27996500
  H     1.80139500     1.42695900    -0.18401000
  H     1.98070500     0.52596800     1.33333300
  H     1.68383900    -1.60814600     0.08797900
  H     1.50252000    -0.71442200    -1.41221400
  H    -2.84304500     0.13404000     1.44758200
  H    -3.20860000    -1.16565800     0.29112100
