   15
bigqm7wdef2tzvp_005713.xyz
  C    -0.68098200     1.63450800     0.00000000
  N     0.00000000     0.35279000     0.00000000
  C     1.39031100     0.34253300     0.00000000
  N     2.17218700     1.33541400     0.00000000
  C    -0.76962700    -0.80898600     0.00000000
  C    -0.05143600    -2.13834900     0.00000000
  O    -1.97608000    -0.75203000     0.00000000
  H    -0.41464500     2.20836500     0.88986400
  H    -1.74959700     1.44899100     0.00000000
  H    -0.41464500     2.20836500    -0.88986400
  H     1.82800800    -0.64954300     0.00000000
  H     1.68381000     2.22700900     0.00000000
  H     0.57706100    -2.25523500     0.88364400
  H     0.57706100    -2.25523500    -0.88364400
  H    -0.81331800    -2.91213800     0.00000000
