   17
bigqm7wdef2tzvp_008918.xyz
  C     2.01572800     1.40796100     0.07167300
  C     1.22284400     0.23771500    -0.44486600
  C     1.55597600    -1.16241200    -0.00874600
  C     0.28866800    -0.50489700     0.45775400
  C    -1.04492000    -0.99612300    -0.06175500
  C    -2.07684400     0.03752900    -0.03190800
  C    -2.90936500     0.89769900     0.00323400
  H     2.92140400     1.56295100    -0.51846700
  H     2.31825100     1.24391300     1.10840900
  H     1.42600100     2.32609100     0.03708500
  H     0.88577800     0.33672000    -1.47151800
  H     2.35598200    -1.29107900     0.70916300
  H     1.47396500    -1.96108400    -0.73534500
  H     0.26822800    -0.17577600     1.49065100
  H    -1.38282900    -1.85475600     0.52538100
  H    -0.92797800    -1.35060200    -1.09014600
  H    -3.65132100     1.65878200     0.03246800
