   14
bigqm7wdef2tzvp_010593.xyz
  C    -3.19757900     0.90186600     0.06832500
  C    -2.61640500    -0.50545500    -0.08146300
  C    -1.15976400    -0.52239100    -0.02760500
  C     0.03992100    -0.49346800     0.01528100
  C     1.45903500    -0.53947700     0.07919000
  N     2.14551100     0.51907400    -0.08499200
  O     3.49465100     0.25479600     0.01662100
  H    -4.28644900     0.86688100     0.01957300
  H    -2.83644000     1.55508100    -0.72596100
  H    -2.90817400     1.33969000     1.02364800
  H    -2.93733700    -0.94262900    -1.03086600
  H    -3.00549300    -1.15710100     0.70527000
  H     1.94821500    -1.49368900     0.27101900
  H     3.89865000     1.11343100    -0.12307400
