   14
bigqm7wdef2tzvp_011860.xyz
  O    -1.14151900    -1.59163200     0.28932700
  C    -0.58608700    -0.54799400    -0.47721700
  C    -1.16791000     0.75565100    -0.08942800
  N    -1.64373700     1.75703700     0.20413800
  C     0.91111100    -0.57958000    -0.30026300
  C     1.75567600     0.64400400    -0.49408800
  C     1.57169500     0.06501700     0.87770000
  H    -2.08686800    -1.63566700     0.13065400
  H    -0.81692600    -0.68369200    -1.54168100
  H     1.32515900    -1.52026400    -0.63998200
  H     1.25796900     1.58095200    -0.70835900
  H     2.70848700     0.51605700    -0.98821300
  H     0.94506600     0.61347400     1.56885500
  H     2.39852500    -0.45965200     1.33491400
