   15
bigqm7wdef2tzvp_008121.xyz
  C    -1.34703700    -1.49782500    -0.41516800
  C    -0.37089900    -0.70412800     0.45457100
  C     1.07412100    -1.08332700     0.26085900
  C     1.73618500    -0.01163700    -0.13920200
  O     0.96654600     1.11547900    -0.24983000
  C    -0.32114100     0.77269900     0.10481400
  C    -1.29562200     1.66697700     0.09740800
  H    -1.32116300    -2.55667000    -0.15179600
  H    -1.08754200    -1.39698700    -1.46978300
  H    -2.36698700    -1.13604000    -0.27736700
  H    -0.66464600    -0.82030400     1.50259300
  H     1.48802100    -2.06676400     0.41144500
  H     2.77572900     0.12746300    -0.39073400
  H    -1.11335800     2.69320900    -0.18744400
  H    -2.29606900     1.37570300     0.38203500
