   12
bigqm7wdef2tzvp_011525.xyz
  F    -2.39725200     0.26263500    -0.56382200
  C    -1.64465600    -0.31583600     0.45118000
  C    -0.19210600    -0.09877600     0.21714100
  C     0.52320600     1.11616000     0.19510000
  C     1.81635000     0.75002600    -0.06809100
  N     1.81404800    -0.59466600    -0.17898200
  H     2.59424200    -1.19698600    -0.36583200
  N     0.60509300    -1.13001500    -0.01385900
  H    -1.85820900    -1.38507400     0.47035300
  H    -1.96983600     0.14189700     1.38831300
  H     0.14033400     2.11137500     0.34011100
  H     2.71798200     1.32838100    -0.18063000
