   19
bigqm7wdef2tzvp_007299.xyz
  C     1.48218700     1.40054200     0.10862300
  C     1.41258200    -0.09873100     0.08631500
  C     2.44597600    -0.84690600    -0.28010000
  C     0.10128700    -0.71698200     0.49945100
  C    -1.05215300    -0.35235400    -0.40879800
  C    -2.46117500    -0.49973200     0.08106500
  C    -1.88296900     0.86841900    -0.14089900
  H     2.47803600     1.75843100    -0.15122300
  H     1.22404300     1.78313400     1.10036500
  H     0.76428500     1.83306800    -0.59176300
  H     3.38975600    -0.40441200    -0.57680000
  H     2.38373500    -1.92884800    -0.29415000
  H    -0.14366200    -0.39185900     1.51804300
  H     0.20769800    -1.80398800     0.53187900
  H    -0.88557600    -0.59182500    -1.45328000
  H    -2.60261900    -0.82655000     1.10361700
  H    -3.21222000    -0.85614700    -0.61059300
  H    -1.63751500     1.45826100     0.73324100
  H    -2.24037800     1.44520300    -0.98327800
