   12
bigqm7wdef2tzvp_005979.xyz
  N     2.14414600     0.68977900     0.00000200
  C     1.20778200    -0.27255900     0.00000100
  O     1.40830200    -1.46603600    -0.00000100
  C    -0.22672700     0.28517900    -0.00000100
  O    -0.43714500     1.47268000    -0.00000500
  C    -1.34157600    -0.71874900    -0.00000400
  O    -2.59115300    -0.10636900     0.00000900
  H     3.11585300     0.43800900     0.00001100
  H     1.86305700     1.65475600     0.00001200
  H    -1.21043100    -1.36668600     0.87560400
  H    -1.21043700    -1.36666900    -0.87562600
  H    -2.44397200     0.84670800    -0.00001200
