   15
bigqm7wdef2tzvp_009613.xyz
  C     2.45610100    -0.65480300    -0.07006800
  C     1.00868600    -1.01625400    -0.11909300
  C    -0.04643900    -0.23995400     0.15360500
  C     0.03194300     1.21146000     0.56532600
  O    -0.47702700     2.08183900    -0.42468000
  C    -1.36999000    -0.77479400     0.03435000
  C    -2.49014900    -1.19540500    -0.04798700
  H     2.93488200    -0.90598700    -1.01964500
  H     2.96533800    -1.23999500     0.70035300
  H     2.63636100     0.39884600     0.13273300
  H     0.79957700    -2.04133000    -0.40945300
  H     1.05868500     1.47736000     0.83141700
  H    -0.58898400     1.37089500     1.44767200
  H    -0.04834400     1.87404100    -1.25682700
  H    -3.48220700    -1.57004600    -0.12560800
