   15
bigqm7wdef2tzvp_009524.xyz
  C    -2.32627500    -0.66898300     0.06940400
  N    -1.28662600     0.30125300    -0.18740100
  C     0.01727200    -0.08129700    -0.08140400
  N     0.97159900     0.93568100    -0.20295100
  O     0.50917900     2.18661100     0.24895500
  N     0.34557900    -1.31538500     0.03066800
  N     1.76691200    -1.48502700     0.09265700
  H    -3.29234500    -0.19003500    -0.08416200
  H    -2.27987400    -1.07666100     1.08424300
  H    -2.22953500    -1.50181700    -0.62577600
  H    -1.45223000     1.24456700     0.11833000
  H     1.79975500     0.66868600     0.32258600
  H     0.62020200     2.75771900    -0.51401000
  H     2.12326200    -1.55310400    -0.85710700
  H     1.90910000    -2.39621900     0.50543800
