   11
bigqm7wdef2tzvp_011364.xyz
  C     1.98957600     1.36870000    -0.00000000
  N     0.72944000     1.48281000     0.00000000
  N     0.00000000     0.31914700     0.00000000
  C    -1.34857500     0.28445300     0.00000000
  C    -1.63785300    -1.04800900     0.00000000
  N    -0.46910100    -1.74229900    -0.00000000
  N     0.51840600    -0.91342800    -0.00000000
  H     2.55031900     2.29525300    -0.00000000
  H     2.50839000     0.41408100    -0.00000000
  H    -1.93780100     1.18311400     0.00000000
  H    -2.59101300    -1.54692000     0.00000000
