   16
bigqm7wdef2tzvp_009995.xyz
  C    -1.04486500     2.93769600     0.00000000
  C     0.26652700     2.18821200     0.00000000
  O     0.00000000     0.80586700     0.00000000
  C     1.15892700     0.02168300     0.00000000
  C     0.81500300    -1.43035000     0.00000000
  C    -0.42008600    -1.88587500     0.00000000
  F    -0.68148700    -3.20192700     0.00000000
  H    -0.86330100     4.01339200     0.00000000
  H    -1.62990000     2.68515500     0.88491000
  H    -1.62990000     2.68515500    -0.88491000
  H     0.86198200     2.45266200     0.88546300
  H     0.86198200     2.45266200    -0.88546300
  H     1.77650600     0.25206700     0.88249500
  H     1.77650600     0.25206700    -0.88249500
  H     1.64115300    -2.13182200     0.00000000
  H    -1.31467800    -1.27913700     0.00000000
