   16
bigqm7wdef2tzvp_008229.xyz
  C    -2.22557400    -0.30828000     0.15545800
  C    -0.73962100    -0.37155300     0.10485700
  C     0.03390600    -1.36276300    -0.31901100
  O     1.37481700    -1.13242800    -0.27339600
  C     1.53474300     0.09858900     0.44179800
  C     0.15927100     0.79808700     0.44034400
  N    -0.04347800     1.87717000    -0.51890800
  H    -2.67509000    -1.22127900    -0.23683400
  H    -2.59328500     0.53821800    -0.42834600
  H    -2.57999600    -0.17086700     1.18096700
  H    -0.24719700    -2.33081900    -0.70925000
  H     2.31124200     0.68591600    -0.04913200
  H     1.85222600    -0.14430800     1.46012600
  H    -0.05601600     1.20710100     1.43075300
  H     0.16880000     1.56025600    -1.45667500
  H     0.54878500     2.67052700    -0.31275300
